*SPEF "ieee 1481-1999"
*DESIGN "design"
*DATE "01:08:33 Wednesday September 16, 2026"
*VENDOR "The OpenROAD Project"
*PROGRAM "OpenROAD"
*VERSION "26Q2-1164-g08f67ee5ec"
*DESIGN_FLOW "NAME_SCOPE LOCAL" "PIN_CAP NONE"
*DIVIDER /
*DELIMITER :
*BUS_DELIMITER []
*T_UNIT 1 NS
*C_UNIT 1 PF
*R_UNIT 1 OHM
*L_UNIT 1 HENRY

*NAME_MAP
*1 _000_
*2 _001_
*3 _002_
*4 _003_
*5 _004_
*6 _005_
*7 _006_
*8 _007_
*9 _008_
*10 _009_
*11 _010_
*12 _011_
*13 _012_
*14 _013_
*15 _014_
*16 _015_
*17 _016_
*18 _017_
*19 _018_
*20 _019_
*21 _020_
*22 _021_
*23 _022_
*24 _023_
*25 _024_
*26 _025_
*27 _026_
*28 _027_
*29 _028_
*30 _029_
*31 _030_
*32 _031_
*33 _032_
*34 _033_
*35 _034_
*36 _035_
*37 _036_
*38 _037_
*39 _038_
*40 _039_
*41 _040_
*42 _041_
*43 _042_
*44 _043_
*45 _044_
*46 _045_
*47 _046_
*48 _047_
*49 _048_
*50 _049_
*51 _050_
*52 _051_
*53 _052_
*54 _053_
*55 _054_
*56 _055_
*57 _056_
*58 _057_
*59 _058_
*60 _059_
*61 _060_
*62 _061_
*63 _062_
*64 _063_
*65 _064_
*66 _065_
*67 _066_
*68 _067_
*69 _068_
*70 _069_
*71 _070_
*72 _071_
*73 _072_
*74 _073_
*75 _074_
*76 _075_
*77 _076_
*78 _077_
*79 _078_
*80 _079_
*81 _080_
*82 _081_
*83 _082_
*84 _083_
*85 _084_
*86 _085_
*87 _086_
*88 _087_
*89 _088_
*90 _089_
*91 _090_
*92 _091_
*93 _092_
*94 _093_
*95 _094_
*96 _095_
*97 _096_
*98 _097_
*99 _098_
*100 _099_
*101 _100_
*102 _101_
*103 _102_
*104 _103_
*105 _104_
*106 _105_
*107 _106_
*108 _107_
*109 _108_
*110 _109_
*111 _110_
*112 _111_
*113 _112_
*114 _113_
*115 _114_
*116 _115_
*117 _116_
*118 _117_
*119 _118_
*120 _119_
*121 _120_
*122 _121_
*123 _122_
*124 _123_
*125 _124_
*126 _125_
*127 _126_
*128 _127_
*129 _128_
*130 _129_
*131 _130_
*132 _131_
*133 _132_
*134 _133_
*135 _134_
*136 _135_
*137 _136_
*138 _137_
*139 _138_
*140 _139_
*141 _140_
*142 _141_
*143 _142_
*144 _143_
*145 _144_
*146 grant[0]
*147 grant[10]
*148 grant[11]
*149 grant[12]
*150 grant[13]
*151 grant[14]
*152 grant[15]
*153 grant[16]
*154 grant[17]
*155 grant[18]
*156 grant[19]
*157 grant[1]
*158 grant[20]
*159 grant[21]
*160 grant[22]
*161 grant[23]
*162 grant[24]
*163 grant[25]
*164 grant[26]
*165 grant[27]
*166 grant[28]
*167 grant[29]
*168 grant[2]
*169 grant[30]
*170 grant[31]
*171 grant[32]
*172 grant[33]
*173 grant[34]
*174 grant[35]
*175 grant[36]
*176 grant[37]
*177 grant[38]
*178 grant[39]
*179 grant[3]
*180 grant[40]
*181 grant[41]
*182 grant[42]
*183 grant[43]
*184 grant[44]
*185 grant[45]
*186 grant[46]
*187 grant[47]
*188 grant[48]
*189 grant[49]
*190 grant[4]
*191 grant[50]
*192 grant[51]
*193 grant[52]
*194 grant[53]
*195 grant[54]
*196 grant[55]
*197 grant[56]
*198 grant[57]
*199 grant[58]
*200 grant[59]
*201 grant[5]
*202 grant[60]
*203 grant[61]
*204 grant[62]
*205 grant[63]
*206 grant[6]
*207 grant[7]
*208 grant[8]
*209 grant[9]
*210 index[0]
*211 index[1]
*212 index[2]
*213 index[3]
*214 index[4]
*215 index[5]
*216 req[0]
*217 req[10]
*218 req[11]
*219 req[12]
*220 req[13]
*221 req[14]
*222 req[15]
*223 req[16]
*224 req[17]
*225 req[18]
*226 req[19]
*227 req[1]
*228 req[20]
*229 req[21]
*230 req[22]
*231 req[23]
*232 req[24]
*233 req[25]
*234 req[26]
*235 req[27]
*236 req[28]
*237 req[29]
*238 req[2]
*239 req[30]
*240 req[31]
*241 req[32]
*242 req[33]
*243 req[34]
*244 req[35]
*245 req[36]
*246 req[37]
*247 req[38]
*248 req[39]
*249 req[3]
*250 req[40]
*251 req[41]
*252 req[42]
*253 req[43]
*254 req[44]
*255 req[45]
*256 req[46]
*257 req[47]
*258 req[48]
*259 req[49]
*260 req[4]
*261 req[50]
*262 req[51]
*263 req[52]
*264 req[53]
*265 req[54]
*266 req[55]
*267 req[56]
*268 req[57]
*269 req[58]
*270 req[59]
*271 req[5]
*272 req[60]
*273 req[61]
*274 req[62]
*275 req[63]
*276 req[6]
*277 req[7]
*278 req[8]
*279 req[9]
*280 valid
*281 _145_
*282 _146_
*283 _147_
*284 _148_
*285 _149_
*286 _150_
*287 _151_
*288 _152_
*289 _153_
*290 _154_
*291 _155_
*292 _156_
*293 _157_
*294 _158_
*295 _159_
*296 _160_
*297 _161_
*298 _162_
*299 _163_
*300 _164_
*301 _165_
*302 _166_
*303 _167_
*304 _168_
*305 _169_
*306 _170_
*307 _171_
*308 _172_
*309 _173_
*310 _174_
*311 _175_
*312 _176_
*313 _177_
*314 _178_
*315 _179_
*316 _180_
*317 _181_
*318 _182_
*319 _183_
*320 _184_
*321 _185_
*322 _186_
*323 _187_
*324 _188_
*325 _189_
*326 _190_
*327 _191_
*328 _192_
*329 _193_
*330 _194_
*331 _195_
*332 _196_
*333 _197_
*334 _198_
*335 _199_
*336 _200_
*337 _201_
*338 _202_
*339 _203_
*340 _204_
*341 _205_
*342 _206_
*343 _207_
*344 _208_
*345 _209_
*346 _210_
*347 _211_
*348 _212_
*349 _213_
*350 _214_
*351 _215_
*352 _216_
*353 _217_
*354 _218_
*355 _219_
*356 _220_
*357 _221_
*358 _222_
*359 _223_
*360 _224_
*361 _225_
*362 _226_
*363 _227_
*364 _228_
*365 _229_
*366 _230_
*367 _231_
*368 _232_
*369 _233_
*370 _234_
*371 _235_
*372 _236_
*373 _237_
*374 _238_
*375 _239_
*376 _240_
*377 _241_
*378 _242_
*379 _243_
*380 _244_
*381 _245_
*382 _246_
*383 _247_
*384 _248_
*385 _249_
*386 _250_
*387 _251_
*388 _252_
*389 _253_
*390 _254_
*391 _255_
*392 _256_
*393 _257_
*394 _258_
*395 _259_
*396 _260_
*397 _261_
*398 _262_
*399 _263_
*400 _264_
*401 _265_
*402 _266_
*403 _267_
*404 _268_
*405 _269_
*406 _270_
*407 _271_
*408 _272_
*409 _273_
*410 _274_
*411 _275_
*412 _276_
*413 _277_
*414 _278_
*415 _279_
*416 _280_
*417 _281_
*418 _282_
*419 _283_
*420 _284_
*421 _285_
*422 _286_
*423 _287_
*424 _288_
*425 _289_
*426 _290_
*427 _291_
*428 _292_
*429 _293_
*430 _294_
*431 _295_
*432 _296_
*433 _297_
*434 _298_
*435 _299_
*436 _300_
*437 _301_
*438 _302_
*439 _303_
*440 _304_
*441 _305_
*442 _306_
*443 _307_
*444 _308_
*445 _309_
*446 _310_
*447 _311_
*448 _312_
*449 _313_
*450 _314_
*451 _315_
*452 _316_
*453 _317_
*454 _318_
*455 _319_
*456 _320_
*457 _321_
*458 _322_
*459 _323_
*460 _324_
*461 _325_
*462 _326_
*463 _327_
*464 _328_
*465 _329_
*466 _330_
*467 _331_
*468 _332_
*469 _333_
*470 _334_
*471 _335_
*472 _336_
*473 _337_
*474 _338_
*475 _339_
*476 _340_
*477 _341_
*478 _342_
*479 _343_
*480 _344_
*481 _345_
*482 _346_
*483 _347_
*484 _348_
*485 _349_
*486 _350_
*487 _351_
*488 _352_
*489 _353_
*490 _354_
*491 _355_
*492 _356_
*493 _357_
*494 _358_
*495 _359_
*496 _360_

*PORTS
grant[0] O
grant[10] O
grant[11] O
grant[12] O
grant[13] O
grant[14] O
grant[15] O
grant[16] O
grant[17] O
grant[18] O
grant[19] O
grant[1] O
grant[20] O
grant[21] O
grant[22] O
grant[23] O
grant[24] O
grant[25] O
grant[26] O
grant[27] O
grant[28] O
grant[29] O
grant[2] O
grant[30] O
grant[31] O
grant[32] O
grant[33] O
grant[34] O
grant[35] O
grant[36] O
grant[37] O
grant[38] O
grant[39] O
grant[3] O
grant[40] O
grant[41] O
grant[42] O
grant[43] O
grant[44] O
grant[45] O
grant[46] O
grant[47] O
grant[48] O
grant[49] O
grant[4] O
grant[50] O
grant[51] O
grant[52] O
grant[53] O
grant[54] O
grant[55] O
grant[56] O
grant[57] O
grant[58] O
grant[59] O
grant[5] O
grant[60] O
grant[61] O
grant[62] O
grant[63] O
grant[6] O
grant[7] O
grant[8] O
grant[9] O
index[0] O
index[1] O
index[2] O
index[3] O
index[4] O
index[5] O
req[0] I
req[10] I
req[11] I
req[12] I
req[13] I
req[14] I
req[15] I
req[16] I
req[17] I
req[18] I
req[19] I
req[1] I
req[20] I
req[21] I
req[22] I
req[23] I
req[24] I
req[25] I
req[26] I
req[27] I
req[28] I
req[29] I
req[2] I
req[30] I
req[31] I
req[32] I
req[33] I
req[34] I
req[35] I
req[36] I
req[37] I
req[38] I
req[39] I
req[3] I
req[40] I
req[41] I
req[42] I
req[43] I
req[44] I
req[45] I
req[46] I
req[47] I
req[48] I
req[49] I
req[4] I
req[50] I
req[51] I
req[52] I
req[53] I
req[54] I
req[55] I
req[56] I
req[57] I
req[58] I
req[59] I
req[5] I
req[60] I
req[61] I
req[62] I
req[63] I
req[6] I
req[7] I
req[8] I
req[9] I
valid O

*D_NET *1 6.45038e-05
*CONN
*I *314:A1 I *D NAND2_X2
*I *281:ZN O *D INV_X1
*CAP
1 *314:A1 2.64469e-05
2 *281:ZN 2.64469e-05
3 *314:A1 *314:A2 1.16099e-05
*RES
1 *281:ZN *314:A1 13.0357 
*END

*D_NET *2 0.00192456
*CONN
*I *487:B2 I *D OAI22_X1
*I *321:A1 I *D AND2_X1
*I *312:A1 I *D NAND3_X2
*I *282:ZN O *D NOR4_X1
*CAP
1 *487:B2 0.000144859
2 *321:A1 6.01545e-05
3 *312:A1 0
4 *282:ZN 0.000130813
5 *2:14 0.000125193
6 *2:8 0.000340711
7 *321:A1 *320:A1 5.58649e-05
8 *321:A1 *320:A2 8.43215e-07
9 *321:A1 *32:37 6.76399e-05
10 *321:A1 *36:8 4.96509e-05
11 *321:A1 *208:8 6.08235e-06
12 *321:A1 *242:17 7.18184e-06
13 *487:B2 *485:A3 0.000351937
14 *487:B2 *487:B1 6.06596e-05
15 *487:B2 *211:8 6.11946e-05
16 *487:B2 *249:17 6.61827e-05
17 *2:8 *331:A1 1.30565e-05
18 *2:8 *331:A2 7.72792e-06
19 *2:8 *465:B1 1.00119e-05
20 *2:8 *41:10 3.52625e-05
21 *2:8 *41:14 9.71654e-05
22 *2:8 *42:23 5.1505e-05
23 *2:8 *178:33 2.16105e-05
24 *2:8 *207:20 9.78014e-06
25 *2:8 *250:23 2.87703e-06
26 *2:14 *320:A1 1.29947e-05
27 *2:14 *465:B1 3.30047e-06
28 *2:14 *3:18 2.89018e-05
29 *2:14 *3:38 3.8736e-05
30 *2:14 *32:6 4.32144e-07
31 *2:14 *42:23 3.25875e-05
32 *2:14 *250:23 2.55787e-06
33 *2:14 *278:33 2.70806e-05
*RES
1 *282:ZN *2:8 25.1786 
2 *2:8 *2:14 14.0714 
3 *2:14 *312:A1 10 
4 *2:14 *321:A1 19.75 
5 *2:8 *487:B2 40 
*END

*D_NET *3 0.00174875
*CONN
*I *320:A1 I *D AND2_X1
*I *312:A2 I *D NAND3_X2
*I *330:A1 I *D NAND2_X1
*I *492:C2 I *D OAI211_X1
*I *283:ZN O *D NOR4_X1
*CAP
1 *320:A1 2.31344e-05
2 *312:A2 0
3 *330:A1 0
4 *492:C2 0.000146789
5 *283:ZN 0.000128089
6 *3:38 3.17553e-05
7 *3:18 0.000265336
8 *3:12 0.000255257
9 *320:A1 *320:A2 2.39679e-06
10 *320:A1 *484:A2 1.72191e-05
11 *320:A1 *208:8 7.19036e-06
12 *320:A1 *242:17 4.45767e-06
13 *492:C2 *482:A 1.59296e-05
14 *492:C2 *487:B1 2.2014e-05
15 *492:C2 *118:8 1.41914e-05
16 *492:C2 *140:12 0.000119339
17 *492:C2 *193:20 0
18 *492:C2 *266:27 0.000163378
19 *3:12 *283:A2 3.5053e-05
20 *3:12 *283:A3 0
21 *3:12 *283:A4 1.32323e-05
22 *3:12 *312:A3 5.98653e-05
23 *3:12 *336:A1 0
24 *3:12 *339:A1 2.94562e-05
25 *3:12 *496:A1 3.04063e-05
26 *3:12 *31:40 4.81654e-06
27 *3:12 *31:76 3.38409e-05
28 *3:12 *47:8 7.59322e-06
29 *3:12 *208:8 0
30 *3:12 *209:16 3.42532e-05
31 *3:12 *250:31 0
32 *3:12 *278:33 8.02727e-05
33 *3:18 *484:A2 1.24195e-05
34 *3:18 *487:B1 1.11168e-06
35 *3:18 *42:19 3.69055e-05
36 *3:18 *148:12 0
37 *3:38 *484:A2 1.65484e-05
38 *321:A1 *320:A1 5.58649e-05
39 *2:14 *320:A1 1.29947e-05
40 *2:14 *3:18 2.89018e-05
41 *2:14 *3:38 3.8736e-05
*RES
1 *283:ZN *3:12 30.9286 
2 *3:12 *3:18 13.4643 
3 *3:18 *492:C2 32.1072 
4 *3:18 *330:A1 10 
5 *3:12 *3:38 2.28572 
6 *3:38 *312:A2 10 
7 *3:38 *320:A1 14.3929 
*END

*D_NET *4 0.000234415
*CONN
*I *287:A1 I *D NAND3_X1
*I *334:A1 I *D AND4_X1
*I *284:ZN O *D INV_X1
*CAP
1 *287:A1 0
2 *334:A1 2.39803e-05
3 *284:ZN 5.59917e-05
4 *4:20 7.9972e-05
5 *334:A1 *287:A3 3.09411e-06
6 *334:A1 *334:A2 2.16072e-07
7 *334:A1 *6:27 1.68643e-06
8 *4:20 *284:A 1.18525e-05
9 *4:20 *334:A2 3.81274e-06
10 *4:20 *218:13 2.69044e-05
11 *4:20 *243:9 2.69044e-05
*RES
1 *284:ZN *4:20 23.0357 
2 *4:20 *334:A1 7.85714 
3 *4:20 *287:A1 5 
*END

*D_NET *5 0.000325805
*CONN
*I *287:A2 I *D NAND3_X1
*I *285:ZN O *D INV_X1
*CAP
1 *287:A2 3.59683e-05
2 *285:ZN 3.59683e-05
3 *287:A2 *287:A3 6.31117e-05
4 *287:A2 *349:A2 2.49497e-05
5 *287:A2 *6:12 6.68482e-05
6 *287:A2 *44:10 7.45524e-05
7 *287:A2 *44:21 2.4406e-05
*RES
1 *285:ZN *287:A2 27.0357 
*END

*D_NET *6 0.00119241
*CONN
*I *483:B2 I *D OAI221_X1
*I *344:A2 I *D NAND2_X1
*I *334:A3 I *D AND4_X1
*I *287:A3 I *D NAND3_X1
*I *286:ZN O *D NOR2_X1
*CAP
1 *483:B2 5.75293e-06
2 *344:A2 8.68407e-05
3 *334:A3 0
4 *287:A3 2.85755e-05
5 *286:ZN 3.32732e-05
6 *6:27 9.32506e-05
7 *6:12 0.000122666
8 *6:8 0.000126707
9 *287:A3 *311:A1 1.7625e-05
10 *287:A3 *7:23 5.20532e-05
11 *287:A3 *44:10 4.44127e-06
12 *287:A3 *152:12 4.46165e-06
13 *287:A3 *255:23 7.72537e-06
14 *344:A2 *284:A 2.16072e-07
15 *344:A2 *334:A2 2.94773e-05
16 *344:A2 *334:A4 7.19036e-06
17 *344:A2 *118:8 2.183e-06
18 *344:A2 *131:12 1.91168e-05
19 *344:A2 *193:20 6.42516e-05
20 *344:A2 *220:21 1.83411e-06
21 *483:B2 *483:A 8.43215e-07
22 *483:B2 *483:C2 4.32144e-07
23 *483:B2 *69:34 4.79358e-06
24 *6:8 *286:A1 1.04337e-05
25 *6:8 *483:C2 6.82202e-07
26 *6:8 *488:A2 9.74567e-06
27 *6:8 *489:A2 7.31018e-06
28 *6:8 *69:34 7.19036e-06
29 *6:12 *285:A 1.50494e-05
30 *6:12 *349:A2 5.4267e-05
31 *6:12 *464:A2 4.43868e-06
32 *6:12 *483:B1 2.4406e-05
33 *6:12 *52:18 7.93898e-05
34 *6:12 *69:34 2.7699e-05
35 *6:12 *152:12 9.68684e-05
36 *6:27 *334:A2 2.39679e-06
37 *6:27 *334:A4 2.39679e-06
38 *6:27 *131:12 1.68643e-06
39 *287:A2 *287:A3 6.31117e-05
40 *287:A2 *6:12 6.68482e-05
41 *334:A1 *287:A3 3.09411e-06
42 *334:A1 *6:27 1.68643e-06
*RES
1 *286:ZN *6:8 9.17857 
2 *6:8 *6:12 22.2143 
3 *6:12 *287:A3 15.0714 
4 *6:12 *6:27 5.75 
5 *6:27 *334:A3 5 
6 *6:27 *344:A2 25.6429 
7 *6:8 *483:B2 5.75 
*END

*D_NET *7 0.00144016
*CONN
*I *491:C1 I *D AOI221_X1
*I *347:A1 I *D NAND2_X1
*I *311:A1 I *D NOR4_X4
*I *287:ZN O *D NAND3_X1
*CAP
1 *491:C1 0
2 *347:A1 2.24072e-05
3 *311:A1 8.92925e-05
4 *287:ZN 0
5 *7:23 8.30197e-05
6 *7:6 0.000149905
7 *311:A1 *30:14 1.21774e-06
8 *311:A1 *44:10 8.86937e-07
9 *311:A1 *152:12 0.000424931
10 *311:A1 *245:19 0
11 *311:A1 *255:9 0.000381386
12 *311:A1 *255:23 5.52217e-06
13 *311:A1 *273:35 1.30565e-05
14 *347:A1 *491:C2 5.48932e-05
15 *347:A1 *492:B 3.60121e-05
16 *347:A1 *213:18 3.00035e-05
17 *7:23 *491:B1 1.59582e-06
18 *7:23 *131:12 6.11298e-06
19 *7:23 *152:12 4.74229e-05
20 *7:23 *254:31 2.2815e-05
21 *287:A3 *311:A1 1.7625e-05
22 *287:A3 *7:23 5.20532e-05
*RES
1 *287:ZN *7:6 10 
2 *7:6 *311:A1 33.8929 
3 *7:6 *7:23 12.7143 
4 *7:23 *347:A1 20 
5 *7:23 *491:C1 5 
*END

*D_NET *8 0.000504029
*CONN
*I *291:A1 I *D NAND3_X1
*I *381:A1 I *D NAND3_X1
*I *394:A1 I *D NOR4_X2
*I *288:ZN O *D INV_X1
*CAP
1 *291:A1 3.73285e-05
2 *381:A1 8.6539e-06
3 *394:A1 6.13927e-05
4 *288:ZN 3.05691e-05
5 *8:10 7.00466e-05
6 *8:8 6.78976e-05
7 *291:A1 *291:A2 5.47763e-06
8 *291:A1 *381:A3 2.89018e-05
9 *291:A1 *10:12 3.5628e-06
10 *291:A1 *43:52 5.52959e-06
11 *291:A1 *242:17 5.94167e-07
12 *381:A1 *381:A2 2.39679e-06
13 *381:A1 *172:24 1.25215e-05
14 *381:A1 *173:10 0
15 *381:A1 *175:18 4.32144e-07
16 *394:A1 *394:A2 2.39679e-06
17 *394:A1 *10:12 1.68881e-05
18 *394:A1 *172:24 7.93153e-05
19 *394:A1 *175:18 2.44844e-05
20 *8:8 *291:A2 5.36441e-07
21 *8:8 *381:A3 2.43576e-05
22 *8:8 *175:18 2.01897e-05
23 *8:8 *242:17 5.55834e-07
*RES
1 *288:ZN *8:8 13.6429 
2 *8:8 *8:10 5 
3 *8:10 *394:A1 15.4286 
4 *8:10 *381:A1 6.25 
5 *8:8 *291:A1 14.2143 
*END

*D_NET *9 0.000142622
*CONN
*I *291:A2 I *D NAND3_X1
*I *289:ZN O *D INV_X1
*CAP
1 *291:A2 3.74264e-05
2 *289:ZN 3.74264e-05
3 *291:A2 *381:A3 2.73318e-05
4 *291:A2 *43:52 6.82202e-07
5 *291:A2 *172:24 4.64501e-06
6 *291:A2 *175:18 1.74562e-05
7 *291:A2 *242:17 1.16395e-05
8 *291:A1 *291:A2 5.47763e-06
9 *8:8 *291:A2 5.36441e-07
*RES
1 *289:ZN *291:A2 25.0714 
*END

*D_NET *10 0.0011066
*CONN
*I *474:B2 I *D OAI21_X1
*I *381:A3 I *D NAND3_X1
*I *291:A3 I *D NAND3_X1
*I *290:ZN O *D NOR2_X1
*CAP
1 *474:B2 0.00014886
2 *381:A3 2.20917e-05
3 *291:A3 0
4 *290:ZN 1.70305e-05
5 *10:12 0.000126061
6 *10:8 0.000269859
7 *381:A3 *175:18 3.33505e-06
8 *474:B2 *398:A1 2.39679e-06
9 *474:B2 *398:A2 2.39679e-06
10 *474:B2 *404:A2 1.37761e-05
11 *474:B2 *183:14 1.19839e-05
12 *474:B2 *183:20 6.34194e-05
13 *474:B2 *213:20 0.00010608
14 *474:B2 *247:23 0
15 *474:B2 *247:29 0
16 *10:8 *213:20 4.24402e-05
17 *10:12 *290:A1 1.32116e-05
18 *10:12 *394:A2 9.18388e-06
19 *10:12 *397:A 1.28122e-06
20 *10:12 *43:52 1.395e-05
21 *10:12 *172:24 8.61541e-05
22 *10:12 *243:13 4.00586e-05
23 *10:12 *247:23 1.19839e-05
24 *291:A1 *381:A3 2.89018e-05
25 *291:A1 *10:12 3.5628e-06
26 *291:A2 *381:A3 2.73318e-05
27 *394:A1 *10:12 1.68881e-05
28 *8:8 *381:A3 2.43576e-05
*RES
1 *290:ZN *10:8 12.2857 
2 *10:8 *10:12 20.5 
3 *10:12 *291:A3 5 
4 *10:12 *381:A3 18.9643 
5 *10:8 *474:B2 30.4286 
*END

*D_NET *11 0.00266968
*CONN
*I *345:A1 I *D NOR4_X1
*I *333:A1 I *D NOR3_X1
*I *367:A1 I *D NOR3_X1
*I *375:A1 I *D NOR2_X1
*I *353:A1 I *D NOR3_X1
*I *311:A2 I *D NOR4_X4
*I *342:A1 I *D NOR3_X1
*I *358:A1 I *D NOR4_X1
*I *291:ZN O *D NAND3_X1
*CAP
1 *345:A1 5.65017e-06
2 *333:A1 4.68271e-06
3 *367:A1 3.22191e-05
4 *375:A1 2.18661e-05
5 *353:A1 0
6 *311:A2 6.29936e-06
7 *342:A1 3.28267e-05
8 *358:A1 0
9 *291:ZN 7.38325e-05
10 *11:70 0.000133506
11 *11:59 0.000175717
12 *11:51 0.000162939
13 *11:40 0.000128829
14 *11:36 0.000147737
15 *11:14 0.000140819
16 *11:8 0.000263342
17 *311:A2 *30:14 3.09411e-06
18 *311:A2 *245:19 2.52965e-06
19 *333:A1 *43:12 2.75346e-06
20 *333:A1 *43:21 7.72537e-06
21 *342:A1 *342:A3 2.52102e-05
22 *342:A1 *358:A2 2.80478e-06
23 *342:A1 *462:A2 1.70915e-05
24 *342:A1 *43:85 2.39679e-06
25 *342:A1 *48:12 1.88479e-06
26 *342:A1 *49:14 2.39679e-06
27 *342:A1 *154:10 1.52083e-06
28 *342:A1 *265:29 1.01247e-05
29 *345:A1 *118:8 2.72417e-06
30 *345:A1 *242:17 3.49085e-06
31 *367:A1 *352:A2 8.43215e-07
32 *367:A1 *367:A2 4.43172e-05
33 *367:A1 *43:21 1.68643e-06
34 *367:A1 *56:8 9.68533e-06
35 *375:A1 *367:A2 1.22753e-05
36 *375:A1 *43:23 5.62244e-05
37 *375:A1 *171:10 3.11158e-06
38 *375:A1 *179:8 2.96269e-05
39 *11:8 *463:A3 4.49583e-06
40 *11:8 *242:17 3.65304e-05
41 *11:14 *342:A3 2.39679e-06
42 *11:14 *43:85 3.28137e-06
43 *11:14 *48:12 6.85774e-07
44 *11:14 *247:23 0
45 *11:14 *265:29 1.26998e-05
46 *11:14 *265:33 0.000141837
47 *11:14 *278:15 0
48 *11:36 *463:A3 9.71605e-05
49 *11:36 *118:8 1.5117e-05
50 *11:36 *242:17 3.39845e-05
51 *11:36 *253:19 1.37817e-05
52 *11:40 *345:A2 2.39679e-06
53 *11:40 *30:14 4.26273e-05
54 *11:40 *245:19 4.41292e-05
55 *11:51 *333:A3 9.44209e-05
56 *11:51 *30:14 0.000118829
57 *11:51 *30:23 1.72405e-05
58 *11:51 *31:8 0.000132141
59 *11:51 *218:13 9.05228e-06
60 *11:51 *243:9 3.89953e-06
61 *11:51 *255:9 7.21983e-06
62 *11:59 *353:A3 8.43215e-07
63 *11:59 *491:B1 4.41329e-05
64 *11:59 *31:8 6.70264e-06
65 *11:59 *43:21 1.53381e-05
66 *11:59 *44:10 1.72405e-05
67 *11:59 *255:9 4.24122e-05
68 *11:59 *255:23 0
69 *11:70 *353:A3 1.68643e-06
70 *11:70 *491:B1 3.09143e-06
71 *11:70 *43:21 1.56573e-05
72 *11:70 *55:6 3.46864e-06
73 *11:70 *56:8 9.15662e-05
74 *11:70 *171:10 1.02819e-05
75 *11:70 *179:8 9.55059e-06
*RES
1 *291:ZN *11:8 19.0714 
2 *11:8 *11:14 20 
3 *11:14 *358:A1 5 
4 *11:14 *342:A1 19.7857 
5 *11:8 *11:36 11.1071 
6 *11:36 *11:40 14.75 
7 *11:40 *311:A2 5.75 
8 *11:40 *11:51 18.1429 
9 *11:51 *11:59 18.2857 
10 *11:59 *353:A1 5 
11 *11:59 *11:70 16.8571 
12 *11:70 *375:A1 14.3214 
13 *11:70 *367:A1 14.75 
14 *11:51 *333:A1 10.75 
15 *11:36 *345:A1 10.9286 
*END

*D_NET *12 0.000644032
*CONN
*I *293:A I *D INV_X1
*I *403:A1 I *D NAND2_X1
*I *474:B1 I *D OAI21_X1
*I *292:ZN O *D OR4_X1
*CAP
1 *293:A 3.05834e-05
2 *403:A1 0
3 *474:B1 0
4 *292:ZN 2.96477e-05
5 *12:21 7.03152e-05
6 *12:12 6.93795e-05
7 *293:A *176:8 1.57812e-05
8 *293:A *176:19 9.91569e-06
9 *293:A *257:33 2.54754e-05
10 *12:12 *393:A4 4.1178e-05
11 *12:12 *401:A1 7.83965e-06
12 *12:12 *404:A2 9.11897e-07
13 *12:12 *474:A 7.45554e-05
14 *12:12 *77:10 6.8609e-06
15 *12:12 *77:23 2.6975e-05
16 *12:12 *78:18 6.76399e-05
17 *12:21 *474:A 1.72405e-05
18 *12:21 *78:16 4.18985e-05
19 *12:21 *78:18 6.20566e-05
20 *12:21 *176:8 3.8814e-05
21 *12:21 *203:18 1.3143e-06
22 *12:21 *257:33 5.64879e-06
*RES
1 *292:ZN *12:12 16.6786 
2 *12:12 *474:B1 10 
3 *12:12 *12:21 7.03572 
4 *12:21 *403:A1 10 
5 *12:21 *293:A 14.3214 
*END

*D_NET *13 0.000112572
*CONN
*I *303:A1 I *D NAND4_X4
*I *293:ZN O *D INV_X1
*CAP
1 *303:A1 2.08986e-05
2 *293:ZN 2.08986e-05
3 *303:A1 *23:8 1.39839e-06
4 *303:A1 *176:19 5.54348e-05
5 *303:A1 *257:33 1.25431e-05
6 *303:A1 *273:35 1.39839e-06
*RES
1 *293:ZN *303:A1 23.7143 
*END

*D_NET *14 0.00126295
*CONN
*I *303:A2 I *D NAND4_X4
*I *490:B2 I *D AOI21_X1
*I *392:A1 I *D AND3_X1
*I *475:C1 I *D AOI211_X1
*I *294:ZN O *D NOR4_X1
*CAP
1 *303:A2 0
2 *490:B2 7.5698e-05
3 *392:A1 0
4 *475:C1 3.44463e-05
5 *294:ZN 0
6 *14:30 0.000115893
7 *14:23 0.000154178
8 *14:6 0.00014843
9 *475:C1 *294:A2 0
10 *475:C1 *475:B 2.39679e-06
11 *475:C1 *475:C2 4.9678e-06
12 *475:C1 *187:23 8.14262e-05
13 *475:C1 *252:17 1.43538e-06
14 *475:C1 *253:71 1.04526e-05
15 *475:C1 *253:82 1.045e-05
16 *490:B2 *22:33 0.000184459
17 *490:B2 *176:19 4.75018e-05
18 *490:B2 *257:33 0.00011833
19 *14:23 *21:22 0.000145209
20 *14:23 *187:23 4.24402e-05
21 *14:23 *251:37 1.00271e-05
22 *14:23 *252:17 2.02955e-06
23 *14:23 *273:35 0
24 *14:30 *21:22 2.75346e-06
25 *14:30 *21:31 5.71954e-05
26 *14:30 *23:8 1.32348e-05
27 *14:30 *273:35 0
*RES
1 *294:ZN *14:6 10 
2 *14:6 *475:C1 15.5714 
3 *14:6 *14:23 21.0357 
4 *14:23 *392:A1 5 
5 *14:23 *14:30 5.75 
6 *14:30 *490:B2 31.5357 
7 *14:30 *303:A2 5 
*END

*D_NET *15 0.000680823
*CONN
*I *422:A1 I *D OR4_X1
*I *301:A1 I *D NOR4_X4
*I *295:ZN O *D OR4_X1
*CAP
1 *422:A1 6.83309e-05
2 *301:A1 0
3 *295:ZN 5.67396e-05
4 *15:8 0.00012507
5 *422:A1 *422:A2 0.000110935
6 *422:A1 *21:10 2.55023e-05
7 *422:A1 *188:10 1.50869e-06
8 *422:A1 *258:17 3.02351e-05
9 *15:8 *92:27 4.24381e-05
10 *15:8 *188:10 9.73318e-06
11 *15:8 *258:17 0.000210329
*RES
1 *295:ZN *15:8 21.1071 
2 *15:8 *301:A1 10 
3 *15:8 *422:A1 21.8571 
*END

*D_NET *16 0.00173828
*CONN
*I *456:A1 I *D OR4_X1
*I *472:A I *D AOI211_X1
*I *451:A2 I *D NOR3_X1
*I *298:A3 I *D OR4_X4
*I *445:A3 I *D NOR4_X1
*I *435:A3 I *D NOR4_X1
*I *453:A1 I *D NOR2_X1
*I *454:A I *D CLKBUF_X1
*I *296:Z O *D BUF_X2
*CAP
1 *456:A1 8.29411e-05
2 *472:A 0.000147205
3 *451:A2 0
4 *298:A3 0
5 *445:A3 4.96055e-05
6 *435:A3 0
7 *453:A1 3.5207e-05
8 *454:A 0
9 *296:Z 9.21697e-06
10 *16:74 0.000258146
11 *16:67 6.89991e-05
12 *16:56 6.79951e-05
13 *16:37 8.6633e-05
14 *16:28 5.97036e-05
15 *16:17 0.000110067
16 *16:8 3.44048e-05
17 *445:A3 *298:A4 2.52084e-07
18 *445:A3 *435:A2 7.19036e-06
19 *445:A3 *435:A4 4.29713e-06
20 *445:A3 *445:A2 6.37281e-06
21 *445:A3 *445:A4 1.80284e-05
22 *445:A3 *17:58 1.41325e-05
23 *445:A3 *273:45 0
24 *445:A3 *273:55 1.25189e-05
25 *453:A1 *297:A 0
26 *453:A1 *452:A 1.74934e-05
27 *453:A1 *472:B 3.16174e-05
28 *453:A1 *17:10 9.57492e-07
29 *453:A1 *204:8 7.19036e-06
30 *456:A1 *456:A2 8.43215e-07
31 *456:A1 *456:A3 1.18232e-06
32 *456:A1 *456:A4 3.23723e-07
33 *456:A1 *203:8 5.1242e-05
34 *456:A1 *203:16 1.26998e-05
35 *456:A1 *273:45 2.58568e-05
36 *472:A *472:B 7.98503e-05
37 *472:A *259:9 5.23715e-05
38 *16:8 *18:12 3.07768e-05
39 *16:8 *274:17 0
40 *16:17 *17:10 2.02955e-06
41 *16:17 *18:12 8.22137e-05
42 *16:17 *204:12 2.13573e-06
43 *16:17 *274:17 0
44 *16:28 *18:12 3.81875e-05
45 *16:28 *204:12 2.32709e-05
46 *16:37 *435:A2 1.66988e-05
47 *16:37 *18:12 5.56936e-06
48 *16:37 *204:12 1.4293e-06
49 *16:56 *298:A1 2.39679e-06
50 *16:56 *435:A2 6.23524e-05
51 *16:56 *445:A2 7.72792e-06
52 *16:56 *451:A1 1.68744e-06
53 *16:56 *18:12 1.21105e-05
54 *16:67 *445:A2 1.54398e-05
55 *16:67 *450:A 0
56 *16:67 *451:A1 5.13679e-05
57 *16:67 *451:A3 1.43842e-05
58 *16:74 *451:A1 2.39679e-06
59 *16:74 *203:8 7.40328e-06
60 *16:74 *273:45 4.15825e-06
*RES
1 *296:Z *16:8 11.6071 
2 *16:8 *454:A 10 
3 *16:8 *16:17 4.32143 
4 *16:17 *453:A1 14.75 
5 *16:17 *16:28 7.71429 
6 *16:28 *435:A3 10 
7 *16:28 *16:37 1.60714 
8 *16:37 *445:A3 16.6071 
9 *16:37 *16:56 9.39286 
10 *16:56 *298:A3 5 
11 *16:56 *16:67 6.42857 
12 *16:67 *451:A2 5 
13 *16:67 *16:74 3.25 
14 *16:74 *472:A 34.7143 
15 *16:74 *456:A1 17.6786 
*END

*D_NET *17 0.00138197
*CONN
*I *451:A3 I *D NOR3_X1
*I *298:A4 I *D OR4_X4
*I *445:A4 I *D NOR4_X1
*I *435:A4 I *D NOR4_X1
*I *472:B I *D AOI211_X1
*I *452:A I *D INV_X1
*I *297:Z O *D BUF_X4
*CAP
1 *451:A3 4.85755e-05
2 *298:A4 8.60683e-06
3 *445:A4 1.34483e-05
4 *435:A4 1.75266e-05
5 *472:B 0.000158582
6 *452:A 1.45269e-05
7 *297:Z 3.03156e-05
8 *17:58 8.8811e-05
9 *17:43 5.65763e-05
10 *17:32 5.20558e-05
11 *17:12 0.000173109
12 *17:10 5.33454e-05
13 *298:A4 *445:A2 0
14 *298:A4 *273:45 7.29164e-07
15 *435:A4 *435:A2 3.09143e-06
16 *451:A3 *445:A2 3.8632e-05
17 *451:A3 *273:45 3.85995e-05
18 *472:B *296:A 1.68643e-06
19 *472:B *426:A1 0
20 *472:B *472:C2 7.16188e-07
21 *472:B *191:18 2.77939e-05
22 *17:10 *204:8 2.16072e-07
23 *17:10 *204:12 2.89018e-05
24 *17:10 *274:17 2.57857e-05
25 *17:32 *204:12 0.000120658
26 *17:32 *274:17 4.56991e-05
27 *17:43 *204:12 5.56848e-05
28 *17:43 *274:17 1.97744e-05
29 *17:58 *445:A2 3.25875e-05
30 *17:58 *204:12 2.89018e-05
31 *17:58 *273:45 8.43215e-07
32 *17:58 *273:55 4.21607e-06
33 *17:58 *274:17 8.93174e-06
34 *445:A3 *298:A4 2.52084e-07
35 *445:A3 *435:A4 4.29713e-06
36 *445:A3 *445:A4 1.80284e-05
37 *445:A3 *17:58 1.41325e-05
38 *453:A1 *452:A 1.74934e-05
39 *453:A1 *472:B 3.16174e-05
40 *453:A1 *17:10 9.57492e-07
41 *472:A *472:B 7.98503e-05
42 *16:17 *17:10 2.02955e-06
43 *16:67 *451:A3 1.43842e-05
*RES
1 *297:Z *17:10 14.3929 
2 *17:10 *17:12 5 
3 *17:12 *452:A 6.75 
4 *17:12 *472:B 24.9286 
5 *17:10 *17:32 6.35715 
6 *17:32 *435:A4 13.25 
7 *17:32 *17:43 2.96429 
8 *17:43 *445:A4 11.75 
9 *17:43 *17:58 9.85714 
10 *17:58 *298:A4 5.92857 
11 *17:58 *451:A3 12.6071 
*END

*D_NET *18 0.00256399
*CONN
*I *448:A3 I *D NOR3_X1
*I *426:A1 I *D NOR2_X1
*I *418:A1 I *D NOR3_X1
*I *301:A2 I *D NOR4_X4
*I *422:A2 I *D OR4_X1
*I *298:ZN O *D OR4_X4
*CAP
1 *448:A3 0.000194645
2 *426:A1 0.00019257
3 *418:A1 7.17197e-06
4 *301:A2 0
5 *422:A2 7.93108e-05
6 *298:ZN 0
7 *18:20 0.000147605
8 *18:14 0.00011781
9 *18:12 0.000368159
10 *18:6 0.00032789
11 *418:A1 *418:A2 7.19036e-06
12 *422:A2 *422:A3 2.75346e-06
13 *422:A2 *19:40 0
14 *426:A1 *296:A 2.52965e-06
15 *426:A1 *418:A3 0
16 *426:A1 *426:A2 1.21774e-06
17 *426:A1 *472:C1 0
18 *426:A1 *472:C2 0
19 *426:A1 *20:29 0
20 *426:A1 *114:8 9.71574e-06
21 *426:A1 *191:18 0
22 *448:A3 *436:A1 6.707e-06
23 *448:A3 *448:A2 2.39679e-06
24 *448:A3 *188:16 4.41532e-05
25 *448:A3 *199:18 7.19036e-06
26 *448:A3 *200:10 4.87096e-06
27 *448:A3 *204:12 0
28 *448:A3 *275:17 0.000121198
29 *18:12 *296:A 9.52105e-05
30 *18:12 *435:A2 5.10087e-06
31 *18:12 *191:10 5.11191e-06
32 *18:12 *204:12 0
33 *18:12 *272:26 5.56936e-06
34 *18:12 *274:17 0
35 *18:12 *275:17 0.000336064
36 *18:14 *296:A 2.96955e-05
37 *18:14 *418:A3 5.1189e-05
38 *18:14 *191:10 3.89326e-05
39 *18:20 *418:A2 8.62655e-06
40 *18:20 *418:A3 2.94435e-05
41 *18:20 *92:8 9.05228e-06
42 *18:20 *191:10 2.51151e-05
43 *422:A1 *422:A2 0.000110935
44 *472:B *426:A1 0
45 *16:8 *18:12 3.07768e-05
46 *16:17 *18:12 8.22137e-05
47 *16:28 *18:12 3.81875e-05
48 *16:37 *18:12 5.56936e-06
49 *16:56 *18:12 1.21105e-05
*RES
1 *298:ZN *18:6 10 
2 *18:6 *18:12 25.5 
3 *18:12 *18:14 7.03572 
4 *18:14 *18:20 13.8929 
5 *18:20 *422:A2 16.1786 
6 *18:20 *301:A2 5 
7 *18:14 *418:A1 10.75 
8 *18:12 *426:A1 29.75 
9 *18:6 *448:A3 35.1072 
*END

*D_NET *19 0.00203094
*CONN
*I *426:A2 I *D NOR2_X1
*I *301:A3 I *D NOR4_X4
*I *418:A2 I *D NOR3_X1
*I *422:A3 I *D OR4_X1
*I *471:B1 I *D OAI21_X1
*I *299:ZN O *D OR4_X2
*CAP
1 *426:A2 1.03888e-05
2 *301:A3 0
3 *418:A2 6.24326e-05
4 *422:A3 6.84207e-05
5 *471:B1 1.22419e-05
6 *299:ZN 0.000120312
7 *19:40 0.000192955
8 *19:25 0.000224088
9 *19:23 7.73696e-05
10 *19:12 0.00017439
11 *418:A2 *418:A3 0
12 *422:A3 *21:10 0
13 *422:A3 *94:10 9.67818e-06
14 *422:A3 *111:10 2.51177e-05
15 *422:A3 *198:10 6.78899e-05
16 *426:A2 *114:8 1.25189e-05
17 *471:B1 *471:B2 4.77786e-06
18 *471:B1 *101:8 0
19 *19:12 *299:A2 2.82617e-05
20 *19:12 *471:B2 1.1622e-05
21 *19:12 *101:8 0
22 *19:12 *194:14 1.11357e-05
23 *19:12 *267:29 8.76632e-05
24 *19:12 *269:57 0.000334324
25 *19:12 *269:72 2.51997e-05
26 *19:23 *111:10 7.52554e-05
27 *19:23 *198:10 0.000192551
28 *19:25 *111:10 3.94694e-05
29 *19:25 *198:10 0.000101586
30 *19:40 *418:A3 6.38328e-07
31 *19:40 *20:16 0
32 *19:40 *20:29 2.20314e-05
33 *19:40 *94:10 1.88316e-05
34 *418:A1 *418:A2 7.19036e-06
35 *422:A2 *422:A3 2.75346e-06
36 *422:A2 *19:40 0
37 *426:A1 *426:A2 1.21774e-06
38 *18:20 *418:A2 8.62655e-06
*RES
1 *299:ZN *19:12 37.5 
2 *19:12 *471:B1 6.25 
3 *19:12 *19:23 15.4286 
4 *19:23 *19:25 5.67857 
5 *19:25 *422:A3 19.3929 
6 *19:25 *19:40 20.75 
7 *19:40 *418:A2 11.6786 
8 *19:40 *301:A3 5 
9 *19:23 *426:A2 11.25 
*END

*D_NET *20 0.00174973
*CONN
*I *442:A2 I *D NAND2_X1
*I *301:A4 I *D NOR4_X4
*I *418:A3 I *D NOR3_X1
*I *422:A4 I *D OR4_X1
*I *300:ZN O *D OR4_X4
*CAP
1 *442:A2 4.57346e-05
2 *301:A4 0
3 *418:A3 8.77332e-05
4 *422:A4 3.64885e-05
5 *300:ZN 7.44457e-05
6 *20:29 0.000174532
7 *20:16 0.000287762
8 *20:10 0.000284655
9 *418:A3 *296:A 9.62051e-07
10 *418:A3 *92:8 6.99525e-06
11 *422:A4 *114:10 0.000107413
12 *442:A2 *488:A1 6.68799e-05
13 *20:10 *428:A1 9.36292e-05
14 *20:10 *97:27 2.08095e-06
15 *20:10 *186:18 0
16 *20:10 *273:37 0.000232616
17 *20:16 *459:B2 1.11672e-05
18 *20:16 *488:A1 7.71779e-05
19 *20:16 *94:10 0
20 *20:16 *96:6 0
21 *20:16 *114:8 3.94519e-05
22 *20:16 *114:10 1.66988e-05
23 *20:16 *269:57 0
24 *418:A2 *418:A3 0
25 *426:A1 *418:A3 0
26 *426:A1 *20:29 0
27 *18:14 *418:A3 5.1189e-05
28 *18:20 *418:A3 2.94435e-05
29 *19:40 *418:A3 6.38328e-07
30 *19:40 *20:16 0
31 *19:40 *20:29 2.20314e-05
*RES
1 *300:ZN *20:10 27.4643 
2 *20:10 *20:16 24.6786 
3 *20:16 *422:A4 15.6786 
4 *20:16 *20:29 15.25 
5 *20:29 *418:A3 25.0714 
6 *20:29 *301:A4 5 
7 *20:10 *442:A2 11.25 
*END

*D_NET *21 0.00255637
*CONN
*I *424:A2 I *D AND2_X1
*I *408:A3 I *D AND4_X1
*I *420:A2 I *D AND3_X1
*I *409:A1 I *D NAND2_X1
*I *400:A3 I *D AND4_X1
*I *494:A1 I *D NAND2_X1
*I *303:A3 I *D NAND4_X4
*I *392:A2 I *D AND3_X1
*I *301:ZN O *D NOR4_X4
*CAP
1 *424:A2 0
2 *408:A3 5.06513e-05
3 *420:A2 0
4 *409:A1 5.13464e-05
5 *400:A3 0
6 *494:A1 8.4264e-05
7 *303:A3 0
8 *392:A2 0
9 *301:ZN 0.000193414
10 *21:69 0.000144735
11 *21:31 0.000155515
12 *21:22 0.00019516
13 *21:16 0.00015676
14 *21:14 0.000161829
15 *21:12 0.000181195
16 *21:10 0.000202894
17 *408:A3 *302:A2 3.06406e-05
18 *408:A3 *408:A4 2.9549e-06
19 *408:A3 *420:A1 2.70833e-06
20 *408:A3 *85:19 2.9832e-05
21 *408:A3 *254:37 2.75346e-06
22 *408:A3 *255:37 3.37286e-06
23 *409:A1 *409:A2 2.38936e-05
24 *409:A1 *476:C2 2.39679e-06
25 *409:A1 *130:20 0
26 *494:A1 *494:A2 2.75346e-06
27 *494:A1 *22:33 4.06582e-06
28 *494:A1 *23:8 0
29 *21:10 *423:A3 2.54476e-05
30 *21:10 *457:A1 1.88334e-06
31 *21:10 *94:10 2.89018e-05
32 *21:10 *180:10 6.70842e-06
33 *21:10 *189:8 0
34 *21:10 *252:9 5.64879e-06
35 *21:10 *252:17 2.2287e-05
36 *21:12 *423:A3 3.8984e-05
37 *21:12 *457:A1 1.55671e-05
38 *21:14 *423:A3 0.000104368
39 *21:14 *457:A1 8.25592e-06
40 *21:14 *187:23 2.66621e-05
41 *21:14 *189:21 0.000102752
42 *21:14 *252:17 3.19303e-05
43 *21:16 *400:A4 5.62265e-05
44 *21:16 *409:A2 2.54476e-05
45 *21:16 *187:23 7.82257e-06
46 *21:16 *252:17 2.55821e-05
47 *21:22 *400:A1 2.85098e-05
48 *21:22 *22:39 0
49 *21:22 *187:23 7.65279e-06
50 *21:22 *251:37 2.61469e-06
51 *21:22 *251:43 7.16188e-07
52 *21:22 *252:17 9.22998e-06
53 *21:31 *22:35 0
54 *21:31 *22:39 0
55 *21:69 *302:A3 0
56 *21:69 *424:A1 1.01255e-05
57 *21:69 *457:A1 8.34777e-06
58 *21:69 *457:A4 2.39679e-06
59 *21:69 *22:14 5.81102e-06
60 *21:69 *85:19 2.39679e-06
61 *21:69 *94:27 0
62 *21:69 *112:12 2.68997e-05
63 *21:69 *187:21 8.64288e-07
64 *21:69 *189:21 1.68643e-06
65 *21:69 *255:37 8.43215e-07
66 *21:69 *257:39 0
67 *422:A1 *21:10 2.55023e-05
68 *422:A3 *21:10 0
69 *14:23 *21:22 0.000145209
70 *14:30 *21:22 2.75346e-06
71 *14:30 *21:31 5.71954e-05
*RES
1 *301:ZN *21:10 32.2143 
2 *21:10 *21:12 2.28572 
3 *21:12 *21:14 13.8214 
4 *21:14 *21:16 6.35715 
5 *21:16 *21:22 22.0357 
6 *21:22 *392:A2 5 
7 *21:22 *21:31 8.71429 
8 *21:31 *303:A3 5 
9 *21:31 *494:A1 13.8929 
10 *21:16 *400:A3 10 
11 *21:14 *409:A1 15.75 
12 *21:12 *21:69 15.25 
13 *21:69 *420:A2 5 
14 *21:69 *408:A3 12.2857 
15 *21:10 *424:A2 10 
*END

*D_NET *22 0.00216706
*CONN
*I *486:B1 I *D OAI21_X1
*I *303:A4 I *D NAND4_X4
*I *392:A3 I *D AND3_X1
*I *409:A2 I *D NAND2_X1
*I *400:A4 I *D AND4_X1
*I *490:B1 I *D AOI21_X1
*I *302:ZN O *D NOR4_X1
*CAP
1 *486:B1 4.21577e-05
2 *303:A4 0
3 *392:A3 3.74932e-05
4 *409:A2 6.28629e-05
5 *400:A4 1.77389e-05
6 *490:B1 0
7 *302:ZN 9.69428e-05
8 *22:39 0.000226753
9 *22:35 0.000242995
10 *22:33 0.000117935
11 *22:16 9.83273e-05
12 *22:14 0.000178843
13 *392:A3 *184:8 2.15929e-05
14 *392:A3 *265:43 0
15 *400:A4 *400:A1 1.18589e-06
16 *400:A4 *400:A2 8.43215e-07
17 *400:A4 *187:23 2.09871e-05
18 *409:A2 *400:A2 0
19 *409:A2 *187:23 1.07633e-05
20 *486:B1 *486:B2 8.93834e-05
21 *486:B1 *94:29 4.18985e-05
22 *486:B1 *176:19 9.91569e-06
23 *486:B1 *203:18 3.31114e-05
24 *22:14 *423:A2 2.77917e-07
25 *22:14 *424:A1 0
26 *22:14 *470:A1 2.39679e-06
27 *22:14 *470:A2 1.13642e-05
28 *22:14 *85:19 5.65769e-05
29 *22:14 *94:27 5.85076e-06
30 *22:14 *185:40 4.13128e-05
31 *22:14 *273:37 5.54348e-05
32 *22:16 *490:A 9.00084e-05
33 *22:16 *94:29 1.2203e-05
34 *22:16 *176:19 2.91785e-06
35 *22:16 *203:18 2.21212e-05
36 *22:33 *176:19 0.000209659
37 *22:33 *203:18 2.77008e-06
38 *22:39 *400:A1 0
39 *22:39 *130:20 0
40 *22:39 *180:8 2.52965e-06
41 *409:A1 *409:A2 2.38936e-05
42 *490:B2 *22:33 0.000184459
43 *494:A1 *22:33 4.06582e-06
44 *21:16 *400:A4 5.62265e-05
45 *21:16 *409:A2 2.54476e-05
46 *21:22 *22:39 0
47 *21:31 *22:35 0
48 *21:31 *22:39 0
49 *21:69 *22:14 5.81102e-06
*RES
1 *302:ZN *22:14 34.7143 
2 *22:14 *22:16 6.35715 
3 *22:16 *490:B1 10 
4 *22:16 *22:33 18.5357 
5 *22:33 *22:35 5.75 
6 *22:35 *22:39 19.25 
7 *22:39 *400:A4 13.7143 
8 *22:39 *409:A2 17.8571 
9 *22:35 *392:A3 20 
10 *22:33 *303:A4 5 
11 *22:14 *486:B1 18.3929 
*END

*D_NET *23 0.0010842
*CONN
*I *353:A2 I *D NOR3_X1
*I *311:A3 I *D NOR4_X4
*I *332:A I *D BUF_X2
*I *303:ZN O *D NAND4_X4
*CAP
1 *353:A2 0.000146792
2 *311:A3 0
3 *332:A 0
4 *303:ZN 0.000123291
5 *23:17 0.000207874
6 *23:8 0.000184373
7 *353:A2 *353:A3 1.68798e-05
8 *353:A2 *70:10 0
9 *353:A2 *118:8 4.3074e-05
10 *353:A2 *209:33 0
11 *353:A2 *218:9 8.26873e-05
12 *353:A2 *242:17 3.88863e-05
13 *353:A2 *245:19 2.44072e-05
14 *23:8 *494:A2 0
15 *23:8 *245:19 3.10376e-06
16 *23:8 *245:25 0.000143976
17 *23:8 *273:35 0
18 *23:17 *493:A2 0
19 *23:17 *245:19 5.31936e-05
20 *23:17 *245:25 1.03048e-06
21 *303:A1 *23:8 1.39839e-06
22 *494:A1 *23:8 0
23 *14:30 *23:8 1.32348e-05
*RES
1 *303:ZN *23:8 21.6786 
2 *23:8 *332:A 5 
3 *23:8 *23:17 7.35715 
4 *23:17 *311:A3 5 
5 *23:17 *353:A2 36.3572 
*END

*D_NET *24 6.23858e-05
*CONN
*I *310:A1 I *D NAND4_X1
*I *304:ZN O *D INV_X1
*CAP
1 *310:A1 2.47483e-05
2 *304:ZN 2.47483e-05
3 *310:A1 *304:A 2.75346e-06
4 *310:A1 *310:A3 2.16072e-07
5 *310:A1 *341:A2 3.23723e-07
6 *310:A1 *237:5 1.86809e-06
7 *310:A1 *245:5 7.72792e-06
*RES
1 *304:ZN *310:A1 12.8571 
*END

*D_NET *25 0.000600169
*CONN
*I *310:A2 I *D NAND4_X1
*I *343:A2 I *D AND3_X1
*I *305:ZN O *D NOR3_X1
*CAP
1 *310:A2 3.15159e-05
2 *343:A2 0
3 *305:ZN 0.00014977
4 *25:12 0.000181286
5 *310:A2 *310:A3 1.72426e-05
6 *310:A2 *343:A1 1.66016e-05
7 *310:A2 *49:14 1.2453e-05
8 *310:A2 *153:8 8.29353e-06
9 *310:A2 *210:10 0
10 *25:12 *358:A4 8.81942e-05
11 *25:12 *359:A1 4.78054e-06
12 *25:12 *49:14 5.17016e-05
13 *25:12 *153:8 2.46708e-05
14 *25:12 *236:9 1.2619e-05
15 *25:12 *265:19 0
16 *25:12 *278:15 1.03991e-06
*RES
1 *305:ZN *25:12 28.5714 
2 *25:12 *343:A2 10 
3 *25:12 *310:A2 14.3214 
*END

*D_NET *26 0.00180108
*CONN
*I *487:A2 I *D OAI22_X1
*I *352:A1 I *D NAND2_X1
*I *308:A1 I *D AND2_X1
*I *306:ZN O *D NOR4_X1
*CAP
1 *487:A2 9.852e-05
2 *352:A1 0
3 *308:A1 4.42081e-05
4 *306:ZN 6.74626e-05
5 *26:26 0.000215716
6 *26:12 0.00033749
7 *308:A1 *308:A2 2.06622e-05
8 *308:A1 *352:A2 7.01704e-05
9 *308:A1 *150:27 1.37329e-05
10 *308:A1 *237:9 2.4782e-05
11 *487:A2 *487:A1 1.66491e-05
12 *487:A2 *212:16 5.10699e-05
13 *487:A2 *215:21 5.0546e-06
14 *487:A2 *215:32 3.47275e-05
15 *487:A2 *239:9 5.57484e-06
16 *487:A2 *266:23 6.08871e-07
17 *26:12 *387:A1 0
18 *26:12 *478:A 7.72792e-06
19 *26:12 *64:14 3.22252e-05
20 *26:12 *169:10 0.00014174
21 *26:12 *221:31 2.62029e-05
22 *26:12 *239:9 5.41314e-05
23 *26:26 *306:A1 1.36786e-05
24 *26:26 *306:A2 0.000103005
25 *26:26 *306:A4 7.86506e-05
26 *26:26 *366:A2 2.77742e-05
27 *26:26 *478:C1 1.79658e-05
28 *26:26 *64:20 3.42815e-05
29 *26:26 *69:34 1.26998e-05
30 *26:26 *150:27 1.38389e-05
31 *26:26 *169:10 4.06395e-06
32 *26:26 *215:21 9.92513e-06
33 *26:26 *221:33 1.32348e-05
34 *26:26 *236:19 0.000114616
35 *26:26 *237:9 1.2018e-05
36 *26:26 *239:19 7.68679e-05
*RES
1 *306:ZN *26:12 21.8929 
2 *26:12 *26:26 37 
3 *26:26 *308:A1 17.0357 
4 *26:26 *352:A1 10 
5 *26:12 *487:A2 21.7857 
*END

*D_NET *27 0.000903708
*CONN
*I *352:A2 I *D NAND2_X1
*I *308:A2 I *D AND2_X1
*I *307:ZN O *D NOR4_X1
*CAP
1 *352:A2 2.45655e-05
2 *308:A2 1.08088e-05
3 *307:ZN 0.000237754
4 *27:14 0.000273128
5 *308:A2 *367:A3 6.48216e-07
6 *308:A2 *150:27 1.99813e-05
7 *308:A2 *179:24 3.65322e-06
8 *352:A2 *56:8 7.19036e-06
9 *352:A2 *150:27 7.53907e-05
10 *27:14 *455:A1 4.18746e-06
11 *27:14 *179:24 3.11688e-05
12 *27:14 *205:12 0.000119368
13 *27:14 *234:27 4.18746e-06
14 *308:A1 *308:A2 2.06622e-05
15 *308:A1 *352:A2 7.01704e-05
16 *367:A1 *352:A2 8.43215e-07
*RES
1 *307:ZN *27:14 29.78 
2 *27:14 *308:A2 11.8571 
3 *27:14 *352:A2 14.8929 
*END

*D_NET *28 0.000588643
*CONN
*I *310:A3 I *D NAND4_X1
*I *341:A1 I *D NAND2_X1
*I *308:ZN O *D AND2_X1
*CAP
1 *310:A3 3.80264e-05
2 *341:A1 2.62441e-05
3 *308:ZN 7.62371e-05
4 *28:8 0.000140508
5 *310:A3 *304:A 8.43215e-07
6 *310:A3 *341:A2 8.87728e-06
7 *310:A3 *343:A1 3.02351e-05
8 *310:A3 *30:8 2.35379e-05
9 *310:A3 *210:10 0
10 *310:A3 *245:19 7.12153e-06
11 *341:A1 *341:A2 2.17097e-05
12 *341:A1 *30:8 2.42461e-05
13 *341:A1 *48:12 0
14 *341:A1 *236:9 9.77674e-06
15 *28:8 *150:27 7.93549e-05
16 *28:8 *236:9 8.44668e-05
17 *310:A1 *310:A3 2.16072e-07
18 *310:A2 *310:A3 1.72426e-05
*RES
1 *308:ZN *28:8 22.4643 
2 *28:8 *341:A1 13.8571 
3 *28:8 *310:A3 25.6071 
*END

*D_NET *29 0.00190483
*CONN
*I *371:A I *D INV_X1
*I *310:A4 I *D NAND4_X1
*I *341:A2 I *D NAND2_X1
*I *309:ZN O *D NOR4_X1
*CAP
1 *371:A 0
2 *310:A4 0
3 *341:A2 4.77893e-05
4 *309:ZN 0.000105106
5 *29:16 7.49924e-05
6 *29:14 0.000300178
7 *29:10 0.000378082
8 *341:A2 *30:8 8.99555e-06
9 *341:A2 *245:5 7.16188e-07
10 *341:A2 *253:19 3.28116e-05
11 *29:10 *166:10 3.4243e-05
12 *29:10 *210:10 3.30355e-05
13 *29:10 *211:8 1.3952e-05
14 *29:10 *212:18 4.15118e-05
15 *29:10 *215:42 2.30029e-05
16 *29:10 *266:23 4.12459e-06
17 *29:14 *372:A2 8.81376e-05
18 *29:14 *56:10 0.000326819
19 *29:14 *166:10 1.40462e-05
20 *29:14 *210:10 0.000287037
21 *29:14 *266:9 1.70594e-05
22 *29:16 *245:5 1.04284e-05
23 *29:16 *253:5 2.40703e-05
24 *29:16 *253:19 7.77781e-06
25 *310:A1 *341:A2 3.23723e-07
26 *310:A3 *341:A2 8.87728e-06
27 *341:A1 *341:A2 2.17097e-05
*RES
1 *309:ZN *29:10 24.9286 
2 *29:10 *29:14 48 
3 *29:14 *29:16 4.25 
4 *29:16 *341:A2 12.4286 
5 *29:16 *310:A4 5 
6 *29:10 *371:A 10 
*END

*D_NET *30 0.0014321
*CONN
*I *345:A3 I *D NOR4_X1
*I *333:A3 I *D NOR3_X1
*I *493:A2 I *D NAND2_X1
*I *311:A4 I *D NOR4_X4
*I *310:ZN O *D NAND4_X1
*CAP
1 *345:A3 0
2 *333:A3 1.53146e-05
3 *493:A2 6.18637e-05
4 *311:A4 0
5 *310:ZN 0.000126547
6 *30:23 8.02712e-05
7 *30:14 9.45088e-05
8 *30:8 0.000217963
9 *333:A3 *255:9 8.9925e-05
10 *493:A2 *70:10 4.80114e-06
11 *30:8 *345:A2 0.000114486
12 *30:8 *463:A1 7.03308e-06
13 *30:8 *150:27 2.34212e-05
14 *30:8 *245:19 1.59582e-06
15 *30:8 *253:19 2.23552e-05
16 *30:14 *345:A2 2.39679e-06
17 *30:14 *345:A4 6.70582e-05
18 *30:14 *243:9 0
19 *30:14 *255:9 0.000146147
20 *30:14 *273:35 9.74616e-06
21 *30:23 *255:9 1.2453e-05
22 *310:A3 *30:8 2.35379e-05
23 *311:A1 *30:14 1.21774e-06
24 *311:A2 *30:14 3.09411e-06
25 *341:A1 *30:8 2.42461e-05
26 *341:A2 *30:8 8.99555e-06
27 *11:40 *30:14 4.26273e-05
28 *11:51 *333:A3 9.44209e-05
29 *11:51 *30:14 0.000118829
30 *11:51 *30:23 1.72405e-05
31 *23:17 *493:A2 0
*RES
1 *310:ZN *30:8 24.6786 
2 *30:8 *30:14 22.9643 
3 *30:14 *311:A4 10 
4 *30:14 *30:23 0.928572 
5 *30:23 *493:A2 15.75 
6 *30:23 *333:A3 15 
7 *30:8 *345:A3 5 
*END

*D_NET *31 0.00370097
*CONN
*I *312:A3 I *D NAND3_X2
*I *320:A2 I *D AND2_X1
*I *339:A2 I *D NAND2_X1
*I *336:A3 I *D AND3_X1
*I *338:A3 I *D AND3_X1
*I *496:A4 I *D AND4_X1
*I *330:A2 I *D NAND2_X1
*I *482:A I *D INV_X1
*I *311:ZN O *D NOR4_X4
*CAP
1 *312:A3 4.66265e-05
2 *320:A2 7.60135e-05
3 *339:A2 0
4 *336:A3 0
5 *338:A3 1.74726e-05
6 *496:A4 0
7 *330:A2 6.797e-05
8 *482:A 5.19668e-05
9 *311:ZN 0.000169458
10 *31:76 0.000164065
11 *31:44 4.72399e-05
12 *31:40 8.25939e-05
13 *31:34 6.14174e-05
14 *31:30 0.000130252
15 *31:19 0.000191953
16 *31:8 0.000265172
17 *312:A3 *484:B1 0
18 *312:A3 *32:37 0
19 *312:A3 *208:8 0
20 *312:A3 *278:33 7.19036e-06
21 *320:A2 *36:8 1.61446e-06
22 *320:A2 *199:20 1.91498e-06
23 *320:A2 *208:8 2.77304e-05
24 *320:A2 *243:9 0.000106624
25 *320:A2 *278:33 1.66988e-05
26 *320:A2 *279:17 2.01425e-05
27 *330:A2 *466:A2 1.82068e-05
28 *330:A2 *466:A3 3.51003e-05
29 *330:A2 *148:12 0
30 *330:A2 *193:14 1.80879e-05
31 *330:A2 *195:12 0
32 *338:A3 *196:18 6.73899e-05
33 *338:A3 *279:17 1.41532e-05
34 *482:A *485:A2 2.87403e-05
35 *482:A *140:12 2.39467e-05
36 *482:A *196:14 2.39679e-06
37 *482:A *212:12 1.10576e-05
38 *482:A *263:35 8.98274e-07
39 *31:8 *349:A2 0.000245439
40 *31:8 *464:A2 1.20751e-06
41 *31:8 *483:B1 1.4308e-05
42 *31:8 *483:C1 4.92863e-06
43 *31:8 *44:10 0.00017544
44 *31:8 *44:21 2.89018e-05
45 *31:8 *52:18 3.01977e-06
46 *31:8 *140:12 6.54111e-06
47 *31:8 *209:27 0.000695229
48 *31:8 *218:13 6.03486e-06
49 *31:19 *483:C1 9.93639e-06
50 *31:19 *209:27 7.77137e-05
51 *31:19 *217:21 1.87085e-05
52 *31:19 *218:13 6.24292e-06
53 *31:30 *217:21 7.7692e-05
54 *31:30 *218:13 4.12036e-05
55 *31:34 *339:A1 1.87637e-06
56 *31:34 *47:8 8.43429e-06
57 *31:34 *250:23 1.86809e-06
58 *31:40 *336:A2 5.14359e-05
59 *31:40 *339:A1 8.43215e-07
60 *31:40 *209:16 1.91798e-05
61 *31:40 *250:23 1.86809e-06
62 *31:44 *196:18 9.20459e-05
63 *31:44 *279:17 3.49085e-06
64 *31:44 *279:19 1.57662e-05
65 *31:76 *217:21 1.79017e-05
66 *31:76 *217:34 1.88334e-06
67 *31:76 *218:13 3.73179e-06
68 *31:76 *218:28 4.16195e-06
69 *31:76 *278:33 3.33034e-05
70 *320:A1 *320:A2 2.39679e-06
71 *321:A1 *320:A2 8.43215e-07
72 *492:C2 *482:A 1.59296e-05
73 *3:12 *312:A3 5.98653e-05
74 *3:12 *31:40 4.81654e-06
75 *3:12 *31:76 3.38409e-05
76 *11:51 *31:8 0.000132141
77 *11:59 *31:8 6.70264e-06
*RES
1 *311:ZN *31:8 48.9286 
2 *31:8 *482:A 16.75 
3 *31:8 *31:19 6.35715 
4 *31:19 *330:A2 19.25 
5 *31:19 *31:30 11.7857 
6 *31:30 *31:34 6.25 
7 *31:34 *31:40 6.92857 
8 *31:40 *31:44 10 
9 *31:44 *496:A4 10 
10 *31:44 *338:A3 13.6429 
11 *31:40 *336:A3 5 
12 *31:34 *339:A2 5 
13 *31:30 *31:76 11.2143 
14 *31:76 *320:A2 26.9286 
15 *31:76 *312:A3 11.6786 
*END

*D_NET *32 0.00132742
*CONN
*I *313:A4 I *D NOR4_X4
*I *317:A1 I *D NOR2_X1
*I *319:A3 I *D NOR3_X1
*I *484:B1 I *D OAI22_X1
*I *465:B1 I *D OAI22_X1
*I *312:ZN O *D NAND3_X2
*CAP
1 *313:A4 5.93026e-05
2 *317:A1 4.82183e-05
3 *319:A3 0
4 *484:B1 2.63362e-05
5 *465:B1 6.02355e-05
6 *312:ZN 0.000186146
7 *32:41 8.02795e-05
8 *32:37 0.000255609
9 *32:6 0.000108473
10 *313:A4 *313:A3 8.88375e-05
11 *313:A4 *319:A1 1.62705e-06
12 *313:A4 *238:26 0
13 *313:A4 *279:9 1.11357e-05
14 *317:A1 *319:A1 1.21774e-06
15 *317:A1 *168:6 2.59425e-05
16 *317:A1 *200:41 4.2884e-05
17 *317:A1 *227:17 1.59582e-06
18 *465:B1 *465:A2 4.32144e-07
19 *465:B1 *484:A1 6.707e-06
20 *465:B1 *484:B2 8.26038e-06
21 *484:B1 *484:A1 1.21774e-06
22 *484:B1 *484:A2 2.55387e-06
23 *484:B1 *484:B2 7.72792e-06
24 *32:6 *484:A2 0
25 *32:6 *208:8 0
26 *32:6 *278:33 6.46429e-06
27 *32:37 *313:A3 5.62265e-05
28 *32:37 *319:A1 5.94167e-07
29 *32:37 *208:8 1.87392e-05
30 *32:37 *242:17 4.56505e-05
31 *32:37 *249:28 1.1103e-06
32 *32:37 *249:39 6.81033e-07
33 *32:37 *279:9 4.63348e-05
34 *32:41 *313:A1 1.38665e-05
35 *32:41 *313:A2 6.38784e-06
36 *32:41 *315:A1 1.80284e-05
37 *32:41 *319:A1 7.21602e-06
38 *312:A3 *484:B1 0
39 *312:A3 *32:37 0
40 *321:A1 *32:37 6.76399e-05
41 *2:8 *465:B1 1.00119e-05
42 *2:14 *465:B1 3.30047e-06
43 *2:14 *32:6 4.32144e-07
*RES
1 *312:ZN *32:6 7.25 
2 *32:6 *465:B1 12 
3 *32:6 *484:B1 8.35714 
4 *312:ZN *32:37 32 
5 *32:37 *32:41 9.75 
6 *32:41 *319:A3 5 
7 *32:41 *317:A1 12.6071 
8 *32:37 *313:A4 17.7143 
*END

*D_NET *33 0.000686151
*CONN
*I *316:A2 I *D NAND2_X1
*I *484:B2 I *D OAI22_X1
*I *315:ZN O *D NOR2_X1
*CAP
1 *316:A2 4.07596e-06
2 *484:B2 0.000131952
3 *315:ZN 2.50731e-05
4 *33:8 0.000161101
5 *316:A2 *196:20 7.72792e-06
6 *316:A2 *200:31 7.72792e-06
7 *484:B2 *322:A2 3.17656e-05
8 *484:B2 *485:A3 1.04526e-05
9 *484:B2 *179:8 0
10 *484:B2 *208:12 7.4751e-06
11 *484:B2 *238:13 0.000165385
12 *484:B2 *249:17 6.05589e-05
13 *33:8 *200:41 4.5965e-06
14 *33:8 *238:13 3.5496e-05
15 *33:8 *238:26 1.67748e-05
16 *465:B1 *484:B2 8.26038e-06
17 *484:B1 *484:B2 7.72792e-06
*RES
1 *315:ZN *33:8 12.9643 
2 *33:8 *484:B2 28.6429 
3 *33:8 *316:A2 10.75 
*END

*D_NET *34 0.000862924
*CONN
*I *317:A2 I *D NOR2_X1
*I *465:B2 I *D OAI22_X1
*I *316:ZN O *D NAND2_X1
*CAP
1 *317:A2 4.18137e-05
2 *465:B2 0.000121313
3 *316:ZN 1.90571e-05
4 *34:8 0.000182184
5 *317:A2 *200:41 0
6 *465:B2 *465:A2 5.49137e-05
7 *465:B2 *468:A1 0.00029311
8 *465:B2 *179:8 9.20608e-05
9 *34:8 *196:20 1.77043e-05
10 *34:8 *227:17 4.07669e-05
*RES
1 *316:ZN *34:8 13.75 
2 *34:8 *465:B2 29.9286 
3 *34:8 *317:A2 13.6429 
*END

*D_NET *35 7.41911e-05
*CONN
*I *319:A2 I *D NOR3_X1
*I *318:ZN O *D INV_X1
*CAP
1 *319:A2 2.93133e-05
2 *318:ZN 2.93133e-05
3 *319:A2 *238:26 1.55645e-05
*RES
1 *318:ZN *319:A2 22.9643 
*END

*D_NET *36 0.000993701
*CONN
*I *326:A4 I *D AND4_X1
*I *327:A3 I *D AND3_X2
*I *329:A3 I *D AND3_X1
*I *321:A2 I *D AND2_X1
*I *320:ZN O *D AND2_X1
*CAP
1 *326:A4 2.83947e-05
2 *327:A3 3.80174e-05
3 *329:A3 0
4 *321:A2 0
5 *320:ZN 4.08089e-05
6 *36:21 6.20611e-05
7 *36:15 0.000164775
8 *36:8 0.000153146
9 *326:A4 *326:A2 2.52965e-06
10 *326:A4 *329:A2 0
11 *326:A4 *199:20 5.17833e-05
12 *326:A4 *206:6 6.06412e-06
13 *327:A3 *329:A2 5.27534e-05
14 *327:A3 *484:A1 1.26559e-05
15 *327:A3 *40:6 8.43215e-07
16 *36:8 *199:20 5.97731e-05
17 *36:15 *484:A1 0
18 *36:15 *199:20 0.000169374
19 *36:15 *208:8 0
20 *36:21 *326:A2 0
21 *36:21 *326:A3 0
22 *36:21 *329:A2 1.72426e-05
23 *36:21 *223:9 8.22137e-05
24 *320:A2 *36:8 1.61446e-06
25 *321:A1 *36:8 4.96509e-05
*RES
1 *320:ZN *36:8 11.6786 
2 *36:8 *321:A2 5 
3 *36:8 *36:15 15.75 
4 *36:15 *36:21 14.3214 
5 *36:21 *329:A3 5 
6 *36:21 *327:A3 10.6786 
7 *36:15 *326:A4 9.75 
*END

*D_NET *37 0.000152269
*CONN
*I *322:A2 I *D NAND2_X1
*I *321:ZN O *D AND2_X1
*CAP
1 *322:A2 5.57801e-05
2 *321:ZN 5.57801e-05
3 *322:A2 grant[50] 7.72537e-06
4 *322:A2 *322:A1 1.21774e-06
5 *322:A2 *179:8 0
6 *322:A2 *216:13 0
7 *484:B2 *322:A2 3.17656e-05
*RES
1 *321:ZN *322:A2 25.75 
*END

*D_NET *38 0.000848541
*CONN
*I *468:A1 I *D NAND4_X1
*I *323:A I *D INV_X1
*I *322:ZN O *D NAND2_X1
*CAP
1 *468:A1 0.000185073
2 *323:A 0
3 *322:ZN 3.7822e-05
4 *38:8 0.000222895
5 *468:A1 grant[50] 4.32144e-07
6 *468:A1 *465:A1 5.41899e-05
7 *468:A1 *465:A2 1.16676e-05
8 *468:A1 *468:A2 1.21774e-06
9 *468:A1 *178:27 7.72537e-06
10 *468:A1 *178:31 5.25119e-06
11 *468:A1 *179:8 1.05181e-05
12 *468:A1 *195:12 0
13 *468:A1 *216:13 6.48216e-07
14 *38:8 grant[50] 8.99598e-06
15 *38:8 *216:13 8.99598e-06
16 *465:B2 *468:A1 0.00029311
*RES
1 *322:ZN *38:8 9.67857 
2 *38:8 *323:A 5 
3 *38:8 *468:A1 38.4643 
*END

*D_NET *39 0.000150013
*CONN
*I *326:A1 I *D AND4_X1
*I *324:ZN O *D INV_X1
*CAP
1 *326:A1 3.53696e-05
2 *324:ZN 3.53696e-05
3 *326:A1 *326:A2 2.39679e-06
4 *326:A1 *157:10 4.177e-06
5 *326:A1 *199:20 1.60038e-06
6 *326:A1 *201:10 1.11168e-06
7 *326:A1 *206:6 4.02344e-05
8 *326:A1 *270:5 2.97531e-05
*RES
1 *324:ZN *326:A1 25.3571 
*END

*D_NET *40 0.00074773
*CONN
*I *326:A3 I *D AND4_X1
*I *484:A1 I *D OAI22_X1
*I *327:A2 I *D AND3_X2
*I *325:ZN O *D NOR2_X1
*CAP
1 *326:A3 3.40777e-05
2 *484:A1 0.000190673
3 *327:A2 0
4 *325:ZN 3.06062e-05
5 *40:6 0.000255357
6 *326:A3 *326:A2 7.93012e-05
7 *326:A3 *329:A2 1.48912e-05
8 *326:A3 *270:15 6.32461e-06
9 *484:A1 *327:A1 1.76665e-06
10 *484:A1 *329:A2 3.09411e-06
11 *484:A1 *465:A1 3.37286e-06
12 *484:A1 *465:A2 7.19036e-06
13 *484:A1 *484:A2 2.75346e-06
14 *484:A1 *41:14 0
15 *484:A1 *207:20 3.91883e-05
16 *484:A1 *208:8 4.30918e-06
17 *484:A1 *271:25 8.43215e-07
18 *40:6 *329:A2 1.86809e-06
19 *40:6 *206:6 7.34989e-06
20 *40:6 *271:25 3.28137e-06
21 *40:6 *276:21 4.00586e-05
22 *327:A3 *484:A1 1.26559e-05
23 *327:A3 *40:6 8.43215e-07
24 *465:B1 *484:A1 6.707e-06
25 *484:B1 *484:A1 1.21774e-06
26 *36:15 *484:A1 0
27 *36:21 *326:A3 0
*RES
1 *325:ZN *40:6 9.75 
2 *40:6 *327:A2 5 
3 *40:6 *484:A1 28.2857 
4 *40:6 *326:A3 20 
*END

*D_NET *41 0.000646668
*CONN
*I *329:A1 I *D AND3_X1
*I *465:A1 I *D OAI22_X1
*I *331:A1 I *D NOR2_X1
*I *328:ZN O *D INV_X1
*CAP
1 *329:A1 2.65516e-05
2 *465:A1 2.88929e-05
3 *331:A1 7.17318e-06
4 *328:ZN 3.10795e-05
5 *41:14 8.58052e-05
6 *41:10 0.00010737
7 *329:A1 *326:A2 0
8 *329:A1 *223:9 6.31462e-05
9 *329:A1 *260:13 0
10 *465:A1 *465:A2 2.39679e-06
11 *465:A1 *207:18 8.37704e-06
12 *41:10 *178:33 1.58306e-05
13 *41:10 *223:9 2.88699e-05
14 *41:10 *260:13 0
15 *41:14 *207:20 3.81282e-05
16 *468:A1 *465:A1 5.41899e-05
17 *484:A1 *465:A1 3.37286e-06
18 *484:A1 *41:14 0
19 *2:8 *331:A1 1.30565e-05
20 *2:8 *41:10 3.52625e-05
21 *2:8 *41:14 9.71654e-05
*RES
1 *328:ZN *41:10 14.8571 
2 *41:10 *41:14 14.25 
3 *41:14 *331:A1 6.25 
4 *41:14 *465:A1 19.2143 
5 *41:10 *329:A1 13.6429 
*END

*D_NET *42 0.00165627
*CONN
*I *484:A2 I *D OAI22_X1
*I *331:A2 I *D NOR2_X1
*I *465:A2 I *D OAI22_X1
*I *487:B1 I *D OAI22_X1
*I *330:ZN O *D NAND2_X1
*CAP
1 *484:A2 5.52656e-05
2 *331:A2 3.70013e-06
3 *465:A2 3.03231e-05
4 *487:B1 9.68317e-05
5 *330:ZN 0
6 *42:23 9.52476e-05
7 *42:19 0.000177168
8 *42:6 0.00015751
9 *331:A2 *250:23 1.43238e-06
10 *465:A2 *179:8 9.15924e-05
11 *484:A2 *208:8 3.31276e-05
12 *484:A2 *242:17 0.000117712
13 *487:B1 *485:A2 1.45291e-05
14 *487:B1 *118:8 1.20065e-06
15 *487:B1 *140:12 7.50404e-05
16 *487:B1 *211:8 4.87096e-06
17 *487:B1 *242:17 0.000142443
18 *487:B1 *266:23 1.06474e-05
19 *487:B1 *266:27 4.6613e-07
20 *42:19 *242:17 0.000191666
21 *42:23 *250:23 1.48929e-05
22 *320:A1 *484:A2 1.72191e-05
23 *465:A1 *465:A2 2.39679e-06
24 *465:B1 *465:A2 4.32144e-07
25 *465:B2 *465:A2 5.49137e-05
26 *468:A1 *465:A2 1.16676e-05
27 *484:A1 *465:A2 7.19036e-06
28 *484:A1 *484:A2 2.75346e-06
29 *484:B1 *484:A2 2.55387e-06
30 *487:B2 *487:B1 6.06596e-05
31 *492:C2 *487:B1 2.2014e-05
32 *2:8 *331:A2 7.72792e-06
33 *2:8 *42:23 5.1505e-05
34 *2:14 *42:23 3.25875e-05
35 *3:18 *484:A2 1.24195e-05
36 *3:18 *487:B1 1.11168e-06
37 *3:18 *42:19 3.69055e-05
38 *3:38 *484:A2 1.65484e-05
39 *32:6 *484:A2 0
*RES
1 *330:ZN *42:6 10 
2 *42:6 *487:B1 26.4643 
3 *42:6 *42:19 10.4286 
4 *42:19 *42:23 13.25 
5 *42:23 *465:A2 20.75 
6 *42:23 *331:A2 5.75 
7 *42:19 *484:A2 19.6071 
*END

*D_NET *43 0.00398151
*CONN
*I *367:A2 I *D NOR3_X1
*I *375:A2 I *D NOR2_X1
*I *345:A2 I *D NOR4_X1
*I *342:A2 I *D NOR3_X1
*I *358:A2 I *D NOR4_X1
*I *394:A4 I *D NOR4_X2
*I *398:A2 I *D NOR2_X1
*I *396:A3 I *D NOR3_X1
*I *382:A1 I *D NOR2_X1
*I *333:A2 I *D NOR3_X1
*I *332:Z O *D BUF_X2
*CAP
1 *367:A2 3.55451e-05
2 *375:A2 4.08115e-06
3 *345:A2 5.28273e-05
4 *342:A2 0
5 *358:A2 2.60704e-05
6 *394:A4 0
7 *398:A2 4.9045e-05
8 *396:A3 4.20923e-05
9 *382:A1 8.36745e-06
10 *333:A2 0
11 *332:Z 7.65535e-05
12 *43:85 5.24215e-05
13 *43:54 9.11373e-05
14 *43:52 0.00013986
15 *43:33 0.000267166
16 *43:27 0.000215743
17 *43:25 0.000192472
18 *43:23 9.26071e-05
19 *43:21 0.000236827
20 *43:12 0.0002585
21 *345:A2 *150:6 4.41389e-05
22 *345:A2 *150:27 5.98653e-05
23 *345:A2 *245:19 1.90208e-06
24 *358:A2 *342:A3 3.97856e-05
25 *358:A2 *48:12 1.76813e-06
26 *358:A2 *265:29 8.60151e-06
27 *367:A2 *367:A3 2.39679e-06
28 *367:A2 *171:10 1.62284e-05
29 *367:A2 *179:24 0
30 *375:A2 *179:24 7.72537e-06
31 *375:A2 *209:33 7.72537e-06
32 *382:A1 *172:24 7.29164e-07
33 *396:A3 *396:A2 1.19839e-05
34 *396:A3 *152:12 0.000154486
35 *396:A3 *213:30 1.25189e-05
36 *396:A3 *255:9 0.000153403
37 *398:A2 *398:A1 1.40548e-05
38 *398:A2 *152:12 4.98557e-05
39 *398:A2 *247:23 3.80944e-05
40 *398:A2 *255:9 5.41015e-05
41 *43:12 *491:B1 0
42 *43:12 *70:10 2.56243e-06
43 *43:12 *183:31 0.000172139
44 *43:12 *244:21 6.57022e-05
45 *43:12 *255:23 0
46 *43:21 *353:A3 3.09411e-06
47 *43:21 *70:6 7.34533e-06
48 *43:21 *70:10 2.14113e-05
49 *43:21 *179:24 0
50 *43:21 *209:33 0
51 *43:23 *171:10 8.08825e-05
52 *43:23 *179:8 2.37916e-06
53 *43:25 *171:10 0.000167891
54 *43:27 *171:10 0.00016601
55 *43:33 *171:8 4.68088e-05
56 *43:33 *171:10 0.000218626
57 *43:33 *172:24 6.0887e-06
58 *43:33 *172:26 2.14856e-06
59 *43:33 *247:13 2.50108e-05
60 *43:33 *247:23 0
61 *43:52 *397:A 1.25215e-05
62 *43:52 *172:8 7.06263e-06
63 *43:52 *172:24 3.51992e-06
64 *43:52 *242:17 7.14239e-06
65 *43:52 *243:13 7.61232e-06
66 *43:52 *247:23 6.5577e-05
67 *43:85 *342:A3 2.39679e-06
68 *43:85 *462:A2 3.7666e-06
69 *43:85 *257:23 2.35353e-05
70 *43:85 *265:33 3.33008e-05
71 *291:A1 *43:52 5.52959e-06
72 *291:A2 *43:52 6.82202e-07
73 *333:A1 *43:12 2.75346e-06
74 *333:A1 *43:21 7.72537e-06
75 *342:A1 *358:A2 2.80478e-06
76 *342:A1 *43:85 2.39679e-06
77 *367:A1 *367:A2 4.43172e-05
78 *367:A1 *43:21 1.68643e-06
79 *375:A1 *367:A2 1.22753e-05
80 *375:A1 *43:23 5.62244e-05
81 *474:B2 *398:A2 2.39679e-06
82 *10:12 *43:52 1.395e-05
83 *11:14 *43:85 3.28137e-06
84 *11:40 *345:A2 2.39679e-06
85 *11:59 *43:21 1.53381e-05
86 *11:70 *43:21 1.56573e-05
87 *30:8 *345:A2 0.000114486
88 *30:14 *345:A2 2.39679e-06
*RES
1 *332:Z *43:12 27.8214 
2 *43:12 *333:A2 5 
3 *43:12 *43:21 25.75 
4 *43:21 *43:23 4.32143 
5 *43:23 *43:25 9.07143 
6 *43:25 *43:27 9.07143 
7 *43:27 *43:33 23.0357 
8 *43:33 *382:A1 5.92857 
9 *43:33 *43:52 29.2143 
10 *43:52 *43:54 5 
11 *43:54 *396:A3 19.6429 
12 *43:54 *398:A2 17.7143 
13 *43:52 *394:A4 5 
14 *43:27 *43:85 9.25 
15 *43:85 *358:A2 17.9643 
16 *43:85 *342:A2 5 
17 *43:25 *345:A2 20.75 
18 *43:23 *375:A2 10.75 
19 *43:21 *367:A2 15.1786 
*END

*D_NET *44 0.00145296
*CONN
*I *349:A2 I *D AND2_X1
*I *491:C2 I *D AOI221_X1
*I *347:A2 I *D NAND2_X1
*I *334:A4 I *D AND4_X1
*I *333:ZN O *D NOR3_X1
*CAP
1 *349:A2 6.28123e-05
2 *491:C2 2.91391e-05
3 *347:A2 1.4813e-05
4 *334:A4 6.03184e-06
5 *333:ZN 5.90845e-05
6 *44:25 8.73829e-05
7 *44:21 0.000113145
8 *44:10 7.20184e-05
9 *334:A4 *131:12 7.19036e-06
10 *347:A2 *285:A 0
11 *347:A2 *52:14 2.52965e-06
12 *347:A2 *131:12 7.19036e-06
13 *349:A2 *488:A2 2.39679e-06
14 *349:A2 *52:18 6.64682e-05
15 *349:A2 *69:34 1.68643e-06
16 *349:A2 *222:15 2.39679e-06
17 *491:C2 *491:A 3.22834e-06
18 *491:C2 *491:B1 2.43548e-06
19 *491:C2 *213:18 7.81488e-05
20 *491:C2 *254:31 8.43429e-06
21 *44:10 *255:9 1.5027e-05
22 *44:10 *255:23 2.18457e-05
23 *44:25 *285:A 1.25189e-05
24 *44:25 *52:14 6.46697e-06
25 *44:25 *131:12 5.4877e-05
26 *44:25 *185:40 6.82202e-07
27 *44:25 *248:17 0
28 *287:A2 *349:A2 2.49497e-05
29 *287:A2 *44:10 7.45524e-05
30 *287:A2 *44:21 2.4406e-05
31 *287:A3 *44:10 4.44127e-06
32 *311:A1 *44:10 8.86937e-07
33 *344:A2 *334:A4 7.19036e-06
34 *347:A1 *491:C2 5.48932e-05
35 *6:12 *349:A2 5.4267e-05
36 *6:27 *334:A4 2.39679e-06
37 *11:59 *44:10 1.72405e-05
38 *31:8 *349:A2 0.000245439
39 *31:8 *44:10 0.00017544
40 *31:8 *44:21 2.89018e-05
*RES
1 *333:ZN *44:10 20.6786 
2 *44:10 *334:A4 10.75 
3 *44:10 *44:21 1.60714 
4 *44:21 *44:25 10.75 
5 *44:25 *347:A2 6.67857 
6 *44:25 *491:C2 20.0714 
7 *44:21 *349:A2 23.8929 
*END

*D_NET *45 0.00114482
*CONN
*I *496:A3 I *D AND4_X1
*I *336:A2 I *D AND3_X1
*I *483:C1 I *D OAI221_X1
*I *335:ZN O *D NOR2_X1
*CAP
1 *496:A3 3.67933e-05
2 *336:A2 4.03344e-05
3 *483:C1 0.000110593
4 *335:ZN 0
5 *45:10 0.000183744
6 *45:4 6.961e-05
7 *336:A2 *336:A1 3.22834e-06
8 *336:A2 *496:A1 1.19839e-05
9 *336:A2 *250:23 8.71251e-06
10 *336:A2 *250:31 5.66031e-06
11 *483:C1 *464:A2 2.6065e-05
12 *483:C1 *485:A2 7.72792e-06
13 *483:C1 *140:12 4.16464e-05
14 *483:C1 *217:21 0.000236587
15 *483:C1 *244:19 0.000106084
16 *483:C1 *263:35 8.26038e-06
17 *496:A3 *283:A2 2.39679e-06
18 *496:A3 *283:A3 2.04427e-05
19 *496:A3 *218:35 2.83871e-06
20 *496:A3 *278:33 2.79732e-05
21 *45:10 *283:A3 2.61286e-06
22 *45:10 *217:21 2.28656e-05
23 *45:10 *217:34 8.56664e-06
24 *45:10 *244:19 8.65972e-05
25 *45:10 *278:33 7.19036e-06
26 *31:8 *483:C1 4.92863e-06
27 *31:19 *483:C1 9.93639e-06
28 *31:40 *336:A2 5.14359e-05
*RES
1 *335:ZN *45:4 5 
2 *45:4 *45:10 10.75 
3 *45:10 *483:C1 30.3214 
4 *45:10 *336:A2 15.9286 
5 *45:4 *496:A3 10.1786 
*END

*D_NET *46 0.000192619
*CONN
*I *338:A1 I *D AND3_X1
*I *337:ZN O *D INV_X1
*CAP
1 *338:A1 3.62895e-05
2 *337:ZN 3.62895e-05
3 *338:A1 *283:A3 7.68739e-06
4 *338:A1 *283:A4 2.39679e-06
5 *338:A1 *208:8 1.80284e-05
6 *338:A1 *217:34 3.57027e-05
7 *338:A1 *222:9 1.45779e-05
8 *338:A1 *244:19 4.16464e-05
*RES
1 *337:ZN *338:A1 26.0357 
*END

*D_NET *47 0.000614991
*CONN
*I *340:A I *D INV_X1
*I *468:A2 I *D NAND4_X1
*I *339:ZN O *D NAND2_X1
*CAP
1 *340:A 0
2 *468:A2 0.000165079
3 *339:ZN 4.52526e-05
4 *47:8 0.000210331
5 *468:A2 *468:A3 3.93453e-05
6 *468:A2 *148:12 1.53827e-05
7 *468:A2 *178:27 3.26724e-05
8 *468:A2 *195:12 2.51392e-05
9 *468:A2 *243:9 3.24253e-05
10 *47:8 *339:A1 2.42443e-05
11 *47:8 *250:23 5.1203e-06
12 *47:8 *278:33 2.75346e-06
13 *468:A1 *468:A2 1.21774e-06
14 *3:12 *47:8 7.59322e-06
15 *31:34 *47:8 8.43429e-06
*RES
1 *339:ZN *47:8 10.8571 
2 *47:8 *468:A2 35.75 
3 *47:8 *340:A 5 
*END

*D_NET *48 0.000473015
*CONN
*I *342:A3 I *D NOR3_X1
*I *358:A3 I *D NOR4_X1
*I *341:ZN O *D NAND2_X1
*CAP
1 *342:A3 3.15181e-05
2 *358:A3 0
3 *341:ZN 0.000110453
4 *48:12 0.000141971
5 *342:A3 *358:A4 2.43548e-06
6 *342:A3 *154:10 4.60005e-06
7 *342:A3 *265:29 3.09143e-06
8 *48:12 *358:A4 1.21774e-06
9 *48:12 *462:A2 0
10 *48:12 *171:10 2.95007e-05
11 *48:12 *236:9 0
12 *48:12 *257:19 3.94536e-05
13 *48:12 *265:29 3.46456e-05
14 *48:12 *278:15 0
15 *341:A1 *48:12 0
16 *342:A1 *342:A3 2.52102e-05
17 *342:A1 *48:12 1.88479e-06
18 *358:A2 *342:A3 3.97856e-05
19 *358:A2 *48:12 1.76813e-06
20 *11:14 *342:A3 2.39679e-06
21 *11:14 *48:12 6.85774e-07
22 *43:85 *342:A3 2.39679e-06
*RES
1 *341:ZN *48:12 27.8571 
2 *48:12 *358:A3 5 
3 *48:12 *342:A3 19.4643 
*END

*D_NET *49 0.000905753
*CONN
*I *360:A2 I *D AND2_X1
*I *469:A I *D OAI21_X1
*I *359:A3 I *D AND3_X1
*I *343:A3 I *D AND3_X1
*I *342:ZN O *D NOR3_X1
*CAP
1 *360:A2 4.13538e-05
2 *469:A 0
3 *359:A3 5.1917e-05
4 *343:A3 0
5 *342:ZN 6.32215e-05
6 *49:23 6.06301e-05
7 *49:21 0.000122094
8 *49:14 0.000135249
9 *359:A3 *305:A2 0
10 *359:A3 *359:A2 2.75346e-06
11 *359:A3 *157:16 2.40215e-05
12 *359:A3 *175:30 3.01743e-06
13 *359:A3 *225:17 1.72426e-05
14 *359:A3 *225:23 8.68448e-05
15 *359:A3 *225:25 4.7875e-06
16 *359:A3 *265:19 7.72792e-06
17 *360:A2 *225:17 1.68643e-06
18 *360:A2 *226:13 2.39679e-06
19 *360:A2 *226:21 2.32548e-05
20 *360:A2 *253:5 2.73165e-05
21 *360:A2 *257:19 1.33042e-06
22 *49:14 *343:A1 3.27669e-05
23 *49:14 *462:A2 1.32323e-05
24 *49:14 *236:9 2.37298e-06
25 *49:14 *253:19 7.19036e-06
26 *49:14 *257:19 1.31201e-05
27 *49:14 *265:19 5.69909e-06
28 *49:14 *265:29 0
29 *49:21 *225:17 8.43215e-07
30 *49:21 *225:23 2.52965e-06
31 *49:21 *253:5 3.35414e-05
32 *49:21 *253:19 2.90448e-05
33 *49:21 *257:19 2.20158e-05
34 *49:23 *226:21 0
35 *310:A2 *49:14 1.2453e-05
36 *342:A1 *49:14 2.39679e-06
37 *25:12 *49:14 5.17016e-05
*RES
1 *342:ZN *49:14 23.6429 
2 *49:14 *343:A3 5 
3 *49:14 *49:21 10.25 
4 *49:21 *49:23 0.928572 
5 *49:23 *359:A3 22.1786 
6 *49:23 *469:A 5 
7 *49:21 *360:A2 10.9286 
*END

*D_NET *50 0.0009473
*CONN
*I *345:A4 I *D NOR4_X1
*I *344:ZN O *D NAND2_X1
*CAP
1 *345:A4 0.000189014
2 *344:ZN 0.000189014
3 *345:A4 *344:A1 5.35797e-05
4 *345:A4 *463:A1 8.43215e-07
5 *345:A4 *463:A2 1.60494e-06
6 *345:A4 *118:8 0
7 *345:A4 *193:20 4.80119e-06
8 *345:A4 *243:9 0.000420812
9 *345:A4 *253:19 4.32144e-07
10 *345:A4 *273:35 2.01398e-05
11 *30:14 *345:A4 6.70582e-05
*RES
1 *344:ZN *345:A4 48.8929 
*END

*D_NET *51 0.000262727
*CONN
*I *348:A2 I *D NOR3_X1
*I *346:ZN O *D INV_X1
*CAP
1 *348:A2 7.33053e-05
2 *346:ZN 7.33053e-05
3 *348:A2 *286:A2 0
4 *348:A2 *52:14 2.39679e-06
5 *348:A2 *151:20 7.2187e-06
6 *348:A2 *193:20 7.99622e-05
7 *348:A2 *222:15 2.16072e-07
8 *348:A2 *243:9 2.6323e-05
9 *348:A2 *248:17 0
*RES
1 *346:ZN *348:A2 29.0714 
*END

*D_NET *52 0.00111611
*CONN
*I *348:A3 I *D NOR3_X1
*I *483:B1 I *D OAI221_X1
*I *488:A2 I *D NAND4_X1
*I *347:ZN O *D NAND2_X1
*CAP
1 *348:A3 0
2 *483:B1 1.34563e-05
3 *488:A2 9.98028e-05
4 *347:ZN 9.80503e-05
5 *52:18 0.000133269
6 *52:14 0.00011806
7 *483:B1 *464:A2 2.72417e-06
8 *488:A2 *286:A1 3.73618e-06
9 *488:A2 *488:A1 2.39679e-06
10 *488:A2 *488:A3 0.000146322
11 *488:A2 *489:A2 2.33081e-05
12 *488:A2 *69:34 1.19839e-05
13 *488:A2 *222:15 2.71691e-06
14 *52:14 *488:A3 0
15 *52:14 *131:12 1.18232e-06
16 *52:14 *183:31 0.000157108
17 *52:14 *185:40 3.50288e-05
18 *52:14 *222:15 3.51992e-06
19 *52:14 *244:21 5.23144e-05
20 *52:14 *248:17 0
21 *347:A2 *52:14 2.52965e-06
22 *348:A2 *52:14 2.39679e-06
23 *349:A2 *488:A2 2.39679e-06
24 *349:A2 *52:18 6.64682e-05
25 *6:8 *488:A2 9.74567e-06
26 *6:12 *483:B1 2.4406e-05
27 *6:12 *52:18 7.93898e-05
28 *31:8 *483:B1 1.4308e-05
29 *31:8 *52:18 3.01977e-06
30 *44:25 *52:14 6.46697e-06
*RES
1 *347:ZN *52:14 29.8929 
2 *52:14 *52:18 9.32143 
3 *52:18 *488:A2 25.75 
4 *52:18 *483:B1 12.2857 
5 *52:14 *348:A3 5 
*END

*D_NET *53 4.72832e-05
*CONN
*I *354:A1 I *D AND4_X1
*I *350:ZN O *D INV_X1
*CAP
1 *354:A1 1.69256e-05
2 *350:ZN 1.69256e-05
3 *354:A1 *212:18 1.23562e-06
4 *354:A1 *228:13 1.14686e-05
5 *354:A1 *230:5 7.27785e-07
*RES
1 *350:ZN *354:A1 12.6429 
*END

*D_NET *54 0.000320362
*CONN
*I *354:A3 I *D AND4_X1
*I *369:A2 I *D AND3_X1
*I *351:ZN O *D NOR2_X1
*CAP
1 *354:A3 0
2 *369:A2 3.31731e-05
3 *351:ZN 4.75437e-05
4 *54:10 8.07168e-05
5 *369:A2 *309:A2 4.91108e-05
6 *369:A2 *354:A4 6.01272e-05
7 *369:A2 *369:A1 2.39679e-06
8 *369:A2 *217:15 9.01846e-07
9 *369:A2 *228:13 2.39679e-06
10 *54:10 *158:10 8.2594e-06
11 *54:10 *217:9 1.18775e-05
12 *54:10 *226:9 4.1655e-06
13 *54:10 *230:9 1.96924e-05
*RES
1 *351:ZN *54:10 20.6786 
2 *54:10 *369:A2 10.75 
3 *54:10 *354:A3 5 
*END

*D_NET *55 0.00105231
*CONN
*I *353:A3 I *D NOR3_X1
*I *491:B1 I *D AOI221_X1
*I *352:ZN O *D NAND2_X1
*CAP
1 *353:A3 2.78492e-05
2 *491:B1 0.000139933
3 *352:ZN 6.32985e-05
4 *55:6 0.000231081
5 *353:A3 *118:8 7.47756e-06
6 *353:A3 *242:17 1.02097e-05
7 *491:B1 *284:A 1.86508e-05
8 *491:B1 *491:A 3.22834e-06
9 *491:B1 *152:12 6.6205e-05
10 *491:B1 *193:30 6.20838e-05
11 *491:B1 *220:21 1.21774e-06
12 *491:B1 *244:21 6.67446e-05
13 *491:B1 *254:31 2.30024e-06
14 *491:B1 *255:23 1.68829e-05
15 *55:6 *56:8 0.000123721
16 *55:6 *193:30 0.000134203
17 *353:A2 *353:A3 1.68798e-05
18 *491:C2 *491:B1 2.43548e-06
19 *7:23 *491:B1 1.59582e-06
20 *11:59 *353:A3 8.43215e-07
21 *11:59 *491:B1 4.41329e-05
22 *11:70 *353:A3 1.68643e-06
23 *11:70 *491:B1 3.09143e-06
24 *11:70 *55:6 3.46864e-06
25 *43:12 *491:B1 0
26 *43:21 *353:A3 3.09411e-06
*RES
1 *352:ZN *55:6 17.75 
2 *55:6 *491:B1 35.1429 
3 *55:6 *353:A3 18.7143 
*END

*D_NET *56 0.00266422
*CONN
*I *372:A2 I *D NAND2_X1
*I *374:A2 I *D AND2_X1
*I *354:A4 I *D AND4_X1
*I *369:A3 I *D AND3_X1
*I *479:A I *D OAI21_X1
*I *353:ZN O *D NOR3_X1
*CAP
1 *372:A2 2.64082e-05
2 *374:A2 0
3 *354:A4 2.95526e-05
4 *369:A3 0
5 *479:A 4.98997e-05
6 *353:ZN 0.000147553
7 *56:35 0.000138763
8 *56:18 0.000177846
9 *56:14 7.86754e-05
10 *56:10 0.000190111
11 *56:8 0.000251316
12 *354:A4 *159:19 5.69059e-05
13 *372:A2 *372:A1 2.52965e-06
14 *372:A2 *166:10 9.23835e-05
15 *479:A grant[14] 3.84511e-05
16 *479:A *370:A 2.94743e-05
17 *479:A *373:A1 2.49523e-06
18 *479:A *373:A3 2.39679e-06
19 *479:A *160:6 9.01846e-07
20 *479:A *230:15 2.75346e-06
21 *56:8 *66:10 4.24492e-05
22 *56:8 *193:30 5.19107e-05
23 *56:10 *166:10 0.00010233
24 *56:10 *266:9 3.11899e-05
25 *56:14 *374:A1 2.75346e-06
26 *56:14 *110:12 3.60764e-05
27 *56:14 *148:22 0.000102048
28 *56:14 *161:12 0
29 *56:14 *248:15 0
30 *56:18 *373:A2 1.88334e-06
31 *56:18 *374:A1 1.04526e-05
32 *56:18 *161:12 1.04526e-05
33 *56:18 *163:8 4.92317e-06
34 *56:18 *231:32 8.56664e-06
35 *56:35 *309:A2 7.5681e-05
36 *56:35 *369:A1 4.04033e-05
37 *56:35 *373:A2 7.10677e-06
38 *56:35 *467:A3 6.03486e-06
39 *56:35 *163:8 3.84817e-05
40 *56:35 *231:30 4.83764e-05
41 *56:35 *231:32 1.19634e-05
42 *56:35 *235:9 5.47625e-06
43 *352:A2 *56:8 7.19036e-06
44 *367:A1 *56:8 9.68533e-06
45 *369:A2 *354:A4 6.01272e-05
46 *11:70 *56:8 9.15662e-05
47 *29:14 *372:A2 8.81376e-05
48 *29:14 *56:10 0.000326819
49 *55:6 *56:8 0.000123721
*RES
1 *353:ZN *56:8 33.75 
2 *56:8 *56:10 17.8929 
3 *56:10 *56:14 14.75 
4 *56:14 *56:18 7.96429 
5 *56:18 *479:A 16.9286 
6 *56:18 *56:35 20.8571 
7 *56:35 *369:A3 5 
8 *56:35 *354:A4 10.75 
9 *56:14 *374:A2 5 
10 *56:10 *372:A2 15.75 
*END

*D_NET *57 0.00052736
*CONN
*I *359:A1 I *D AND3_X1
*I *357:A2 I *D NAND3_X1
*I *355:ZN O *D INV_X1
*CAP
1 *359:A1 1.95951e-05
2 *357:A2 3.79549e-05
3 *355:ZN 1.83107e-05
4 *57:8 7.58607e-05
5 *357:A2 *356:A 6.48216e-07
6 *357:A2 *175:30 9.19829e-05
7 *357:A2 *247:13 2.55787e-06
8 *357:A2 *266:9 9.30649e-05
9 *357:A2 *278:15 1.60816e-05
10 *359:A1 *305:A2 2.16072e-07
11 *359:A1 *359:A2 1.30565e-05
12 *359:A1 *265:19 1.11792e-06
13 *359:A1 *278:15 0
14 *57:8 *175:30 7.80171e-05
15 *57:8 *266:9 7.41144e-05
16 *25:12 *359:A1 4.78054e-06
*RES
1 *355:ZN *57:8 14.3214 
2 *57:8 *357:A2 17.25 
3 *57:8 *359:A1 12.25 
*END

*D_NET *58 1.74261e-05
*CONN
*I *357:A3 I *D NAND3_X1
*I *356:ZN O *D INV_X1
*CAP
1 *357:A3 8.71307e-06
2 *356:ZN 8.71307e-06
*RES
1 *356:ZN *357:A3 10.9286 
*END

*D_NET *59 0.000368743
*CONN
*I *358:A4 I *D NOR4_X1
*I *357:ZN O *D NAND3_X1
*CAP
1 *358:A4 0.000118661
2 *357:ZN 0.000118661
3 *358:A4 *265:19 0
4 *358:A4 *265:29 4.15369e-06
5 *358:A4 *278:15 3.54199e-05
6 *342:A3 *358:A4 2.43548e-06
7 *25:12 *358:A4 8.81942e-05
8 *48:12 *358:A4 1.21774e-06
*RES
1 *357:ZN *358:A4 26.2857 
*END

*D_NET *60 0.000213513
*CONN
*I *368:A1 I *D AND4_X1
*I *361:ZN O *D INV_X1
*CAP
1 *368:A1 2.7861e-05
2 *361:ZN 2.7861e-05
3 *368:A1 *368:A2 4.8675e-05
4 *368:A1 *377:A1 7.72792e-06
5 *368:A1 *455:A1 7.1699e-06
6 *368:A1 *232:9 4.09451e-05
7 *368:A1 *233:22 5.32728e-05
*RES
1 *361:ZN *368:A1 25.0714 
*END

*D_NET *61 0.000270405
*CONN
*I *377:A2 I *D AND3_X1
*I *368:A3 I *D AND4_X1
*I *362:ZN O *D NOR2_X1
*CAP
1 *377:A2 5.12264e-05
2 *368:A3 0
3 *362:ZN 2.33088e-05
4 *61:6 7.45352e-05
5 *377:A2 *307:A3 0
6 *377:A2 *379:A3 1.25189e-05
7 *377:A2 *455:A1 5.37387e-05
8 *377:A2 *481:A2 2.96179e-06
9 *377:A2 *193:30 8.87679e-06
10 *377:A2 *226:9 8.33184e-06
11 *61:6 *362:A1 2.75346e-06
12 *61:6 *368:A2 1.32348e-05
13 *61:6 *377:A1 1.86809e-06
14 *61:6 *379:A3 2.75346e-06
15 *61:6 *66:23 1.18997e-05
16 *61:6 *234:37 2.39679e-06
*RES
1 *362:ZN *61:6 8.25 
2 *61:6 *368:A3 5 
3 *61:6 *377:A2 21.6429 
*END

*D_NET *62 0.000179685
*CONN
*I *376:A1 I *D AND4_X1
*I *366:A1 I *D NAND3_X1
*I *363:ZN O *D INV_X1
*CAP
1 *376:A1 1.70878e-05
2 *366:A1 2.26923e-05
3 *363:ZN 8.71307e-06
4 *62:8 4.84932e-05
5 *366:A1 *363:A 8.43215e-07
6 *366:A1 *366:A2 2.39679e-06
7 *366:A1 *64:14 0
8 *366:A1 *64:20 8.59786e-06
9 *366:A1 *150:35 2.16072e-07
10 *366:A1 *220:21 1.32858e-06
11 *366:A1 *236:13 1.59582e-06
12 *366:A1 *254:31 2.3275e-05
13 *376:A1 *363:A 8.43215e-07
14 *376:A1 *376:A2 2.39679e-06
15 *376:A1 *64:14 1.18589e-06
16 *376:A1 *64:20 9.24246e-06
17 *376:A1 *254:31 3.07768e-05
*RES
1 *363:ZN *62:8 10.9286 
2 *62:8 *366:A1 12.8571 
3 *62:8 *376:A1 13.1071 
*END

*D_NET *63 9.02801e-05
*CONN
*I *366:A2 I *D NAND3_X1
*I *364:ZN O *D INV_X1
*CAP
1 *366:A2 1.79252e-05
2 *364:ZN 1.79252e-05
3 *366:A2 *363:A 4.32144e-07
4 *366:A2 *383:A2 7.19036e-06
5 *366:A2 *64:20 1.53338e-05
6 *366:A2 *150:27 9.03468e-07
7 *366:A2 *220:21 3.98975e-07
8 *366:A1 *366:A2 2.39679e-06
9 *26:26 *366:A2 2.77742e-05
*RES
1 *364:ZN *366:A2 22.3571 
*END

*D_NET *64 0.00115216
*CONN
*I *376:A4 I *D AND4_X1
*I *478:C2 I *D OAI211_X1
*I *366:A3 I *D NAND3_X1
*I *383:A2 I *D AND2_X1
*I *365:ZN O *D NOR2_X1
*CAP
1 *376:A4 0
2 *478:C2 9.73524e-05
3 *366:A3 0
4 *383:A2 5.34596e-05
5 *365:ZN 8.28456e-05
6 *64:20 0.000107532
7 *64:14 0.00023427
8 *383:A2 *383:A1 4.64203e-06
9 *383:A2 *220:21 2.88159e-06
10 *383:A2 *236:13 1.21774e-06
11 *383:A2 *236:19 7.21602e-06
12 *478:C2 *376:A3 4.84e-05
13 *478:C2 *384:A2 0
14 *478:C2 *478:B 6.61158e-05
15 *478:C2 *478:C1 2.52965e-06
16 *478:C2 *70:43 2.30029e-05
17 *478:C2 *149:14 0.000102048
18 *478:C2 *179:8 0
19 *478:C2 *248:17 2.52965e-06
20 *64:14 grant[30] 5.52959e-06
21 *64:14 *387:A1 0
22 *64:14 *478:A 3.2969e-06
23 *64:14 *149:14 3.40167e-05
24 *64:14 *150:35 0
25 *64:14 *169:10 3.20741e-05
26 *64:14 *221:31 0.000127527
27 *64:14 *239:13 0
28 *64:14 *254:15 6.85774e-07
29 *64:20 *169:10 4.92863e-06
30 *366:A1 *64:14 0
31 *366:A1 *64:20 8.59786e-06
32 *366:A2 *383:A2 7.19036e-06
33 *366:A2 *64:20 1.53338e-05
34 *376:A1 *64:14 1.18589e-06
35 *376:A1 *64:20 9.24246e-06
36 *26:12 *64:14 3.22252e-05
37 *26:26 *64:20 3.42815e-05
*RES
1 *365:ZN *64:14 27.5357 
2 *64:14 *64:20 16.3571 
3 *64:20 *383:A2 10.9286 
4 *64:20 *366:A3 5 
5 *64:14 *478:C2 29.1429 
6 *64:14 *376:A4 5 
*END

*D_NET *65 0.000425863
*CONN
*I *367:A3 I *D NOR3_X1
*I *366:ZN O *D NAND3_X1
*CAP
1 *367:A3 9.66137e-05
2 *366:ZN 9.66137e-05
3 *367:A3 *66:10 3.51654e-06
4 *367:A3 *150:27 1.84611e-05
5 *367:A3 *150:35 4.77786e-06
6 *367:A3 *179:24 0
7 *367:A3 *220:13 6.48216e-07
8 *367:A3 *220:21 6.33628e-05
9 *367:A3 *221:31 1.04977e-05
10 *367:A3 *236:9 0.000128326
11 *367:A3 *254:15 0
12 *308:A2 *367:A3 6.48216e-07
13 *367:A2 *367:A3 2.39679e-06
*RES
1 *366:ZN *367:A3 33.0714 
*END

*D_NET *66 0.00106335
*CONN
*I *380:A2 I *D AND2_X1
*I *377:A3 I *D AND3_X1
*I *379:A3 I *D AND3_X1
*I *368:A4 I *D AND4_X1
*I *480:A I *D OAI21_X1
*I *367:ZN O *D NOR3_X1
*CAP
1 *380:A2 2.71756e-05
2 *377:A3 0
3 *379:A3 4.97497e-05
4 *368:A4 0
5 *480:A 2.11846e-05
6 *367:ZN 0.000136402
7 *66:43 4.55237e-05
8 *66:25 5.35434e-05
9 *66:23 4.93595e-05
10 *66:10 0.000184804
11 *379:A3 *307:A3 0
12 *379:A3 *162:12 8.24917e-06
13 *379:A3 *193:30 3.17617e-05
14 *379:A3 *234:17 1.21774e-06
15 *379:A3 *234:27 1.30297e-05
16 *380:A2 *455:A1 6.29198e-05
17 *380:A2 *163:8 3.21287e-06
18 *380:A2 *175:34 2.68218e-07
19 *380:A2 *189:37 2.07386e-05
20 *480:A *157:10 3.48113e-05
21 *480:A *157:16 1.54344e-05
22 *480:A *229:9 7.91051e-05
23 *66:10 *362:A1 2.75346e-06
24 *66:10 *480:B1 1.74506e-06
25 *66:10 *179:24 0
26 *66:10 *193:30 1.86909e-05
27 *66:23 *362:A1 1.52724e-05
28 *66:23 *193:30 4.83974e-05
29 *66:25 *193:30 1.76665e-06
30 *66:43 *377:A1 4.92863e-06
31 *66:43 *455:A1 5.37467e-05
32 *66:43 *175:34 4.42201e-06
33 *367:A3 *66:10 3.51654e-06
34 *377:A2 *379:A3 1.25189e-05
35 *56:8 *66:10 4.24492e-05
36 *61:6 *379:A3 2.75346e-06
37 *61:6 *66:23 1.18997e-05
*RES
1 *367:ZN *66:10 20.9286 
2 *66:10 *480:A 19.3214 
3 *66:10 *66:23 4.75 
4 *66:23 *66:25 0.928572 
5 *66:25 *368:A4 5 
6 *66:25 *379:A3 11.6786 
7 *66:23 *66:43 7.96429 
8 *66:43 *377:A3 10 
9 *66:43 *380:A2 13.6429 
*END

*D_NET *67 9.36609e-05
*CONN
*I *373:A2 I *D NOR3_X1
*I *370:ZN O *D INV_X1
*CAP
1 *373:A2 1.97181e-05
2 *370:ZN 1.97181e-05
3 *373:A2 index[5] 1.28122e-06
4 *373:A2 *373:A1 2.39679e-06
5 *373:A2 *373:A3 1.26998e-05
6 *373:A2 *163:8 2.88568e-05
7 *56:18 *373:A2 1.88334e-06
8 *56:35 *373:A2 7.10677e-06
*RES
1 *370:ZN *373:A2 22.8571 
*END

*D_NET *68 7.55042e-05
*CONN
*I *372:A1 I *D NAND2_X1
*I *371:ZN O *D INV_X1
*CAP
1 *372:A1 2.85873e-05
2 *371:ZN 2.85873e-05
3 *372:A1 *69:34 2.37093e-06
4 *372:A1 *135:14 1.3429e-05
5 *372:A2 *372:A1 2.52965e-06
*RES
1 *371:ZN *372:A1 14.1071 
*END

*D_NET *69 0.0016295
*CONN
*I *488:A3 I *D NAND4_X1
*I *373:A3 I *D NOR3_X1
*I *372:ZN O *D NAND2_X1
*CAP
1 *488:A3 0.000117939
2 *373:A3 8.97041e-05
3 *372:ZN 0.0003463
4 *69:34 0.000374534
5 *373:A3 index[5] 0
6 *373:A3 *148:22 1.37423e-05
7 *373:A3 *166:10 1.52725e-05
8 *373:A3 *266:9 1.45945e-05
9 *488:A3 *348:A1 0
10 *488:A3 *222:15 2.28245e-05
11 *69:34 *286:A2 1.1315e-05
12 *69:34 *464:A2 1.08199e-05
13 *69:34 *483:A 0.000259925
14 *69:34 *148:22 0
15 *69:34 *151:20 1.28122e-06
16 *69:34 *152:12 2.20874e-05
17 *69:34 *221:33 9.93133e-05
18 *349:A2 *69:34 1.68643e-06
19 *372:A1 *69:34 2.37093e-06
20 *373:A2 *373:A3 1.26998e-05
21 *479:A *373:A3 2.39679e-06
22 *483:B2 *69:34 4.79358e-06
23 *488:A2 *488:A3 0.000146322
24 *488:A2 *69:34 1.19839e-05
25 *6:8 *69:34 7.19036e-06
26 *6:12 *69:34 2.7699e-05
27 *26:26 *69:34 1.26998e-05
28 *52:14 *488:A3 0
*RES
1 *372:ZN *373:A3 30.5357 
2 *372:ZN *69:34 47.9643 
3 *69:34 *488:A3 27.1071 
*END

*D_NET *70 0.00193126
*CONN
*I *376:A3 I *D AND4_X1
*I *387:A3 I *D AND3_X1
*I *388:A I *D INV_X1
*I *384:A1 I *D NAND2_X1
*I *491:B2 I *D AOI221_X1
*I *493:A1 I *D NAND2_X1
*I *375:ZN O *D NOR2_X1
*CAP
1 *376:A3 3.30502e-05
2 *387:A3 5.09671e-05
3 *388:A 0
4 *384:A1 8.71307e-06
5 *491:B2 6.71139e-05
6 *493:A1 1.08127e-05
7 *375:ZN 0
8 *70:47 0.000111711
9 *70:43 0.000254846
10 *70:10 0.000267887
11 *70:6 0.000225352
12 *70:4 0.000187731
13 *376:A3 *376:A2 1.74934e-05
14 *376:A3 *383:A1 3.83909e-06
15 *387:A3 *306:A1 0
16 *387:A3 *478:A 0
17 *387:A3 *171:10 1.45919e-05
18 *387:A3 *179:8 1.33892e-05
19 *387:A3 *221:33 4.96483e-05
20 *387:A3 *239:13 2.75346e-06
21 *387:A3 *239:19 7.72792e-06
22 *491:B2 *213:18 1.09957e-05
23 *491:B2 *213:20 0.000152077
24 *493:A1 *213:20 3.02351e-05
25 *70:6 *384:A2 4.97191e-06
26 *70:6 *209:33 8.59425e-06
27 *70:10 *384:A2 2.75346e-06
28 *70:10 *209:33 2.75109e-05
29 *70:43 *384:A2 1.03349e-05
30 *70:43 *478:B 0
31 *70:43 *179:8 0.000106591
32 *70:43 *249:17 0
33 *70:47 *171:10 7.10228e-05
34 *70:47 *179:8 7.10228e-05
35 *353:A2 *70:10 0
36 *478:C2 *376:A3 4.84e-05
37 *478:C2 *70:43 2.30029e-05
38 *493:A2 *70:10 4.80114e-06
39 *43:12 *70:10 2.56243e-06
40 *43:21 *70:6 7.34533e-06
41 *43:21 *70:10 2.14113e-05
*RES
1 *375:ZN *70:4 5 
2 *70:4 *70:6 3.75 
3 *70:6 *70:10 25.25 
4 *70:10 *493:A1 11.6071 
5 *70:10 *491:B2 19.75 
6 *70:6 *384:A1 5.92857 
7 *70:4 *70:43 28.7857 
8 *70:43 *70:47 15.4286 
9 *70:47 *388:A 10 
10 *70:47 *387:A3 17.0357 
11 *70:43 *376:A3 9.75 
*END

*D_NET *71 1.74261e-05
*CONN
*I *379:A1 I *D AND3_X1
*I *378:ZN O *D INV_X1
*CAP
1 *379:A1 8.71307e-06
2 *378:ZN 8.71307e-06
*RES
1 *378:ZN *379:A1 10.9286 
*END

*D_NET *72 0.000105092
*CONN
*I *382:A2 I *D NOR2_X1
*I *381:ZN O *D NAND3_X1
*CAP
1 *382:A2 2.52883e-05
2 *381:ZN 2.52883e-05
3 *382:A2 *381:A2 1.25189e-05
4 *382:A2 *172:24 3.2439e-05
5 *382:A2 *175:22 9.55734e-06
*RES
1 *381:ZN *382:A2 14.1786 
*END

*D_NET *73 0.000409033
*CONN
*I *384:A2 I *D NAND2_X1
*I *383:ZN O *D AND2_X1
*CAP
1 *384:A2 0.000171045
2 *383:ZN 0.000171045
3 *384:A2 *74:8 6.21255e-06
4 *384:A2 *209:33 3.65322e-06
5 *384:A2 *220:21 0
6 *384:A2 *249:17 3.90162e-05
7 *478:C2 *384:A2 0
8 *70:6 *384:A2 4.97191e-06
9 *70:10 *384:A2 2.75346e-06
10 *70:43 *384:A2 1.03349e-05
*RES
1 *383:ZN *384:A2 37.8214 
*END

*D_NET *74 0.000528631
*CONN
*I *385:A I *D INV_X1
*I *463:A1 I *D NAND4_X1
*I *384:ZN O *D NAND2_X1
*CAP
1 *385:A 7.19392e-06
2 *463:A1 6.94686e-05
3 *384:ZN 5.58596e-05
4 *74:8 0.000132522
5 *385:A *245:19 1.32348e-05
6 *385:A *249:13 5.52959e-06
7 *463:A1 *462:A1 1.30469e-05
8 *463:A1 *253:19 3.93453e-05
9 *463:A1 *278:17 3.81774e-05
10 *74:8 *249:17 0.000131824
11 *74:8 *278:17 8.34049e-06
12 *345:A4 *463:A1 8.43215e-07
13 *384:A2 *74:8 6.21255e-06
14 *30:8 *463:A1 7.03308e-06
*RES
1 *384:ZN *74:8 18.3929 
2 *74:8 *463:A1 19.4286 
3 *74:8 *385:A 11.25 
*END

*D_NET *75 0.000530233
*CONN
*I *387:A1 I *D AND3_X1
*I *389:A1 I *D NOR2_X1
*I *386:ZN O *D INV_X1
*CAP
1 *387:A1 2.898e-05
2 *389:A1 0.000126999
3 *386:ZN 0
4 *75:4 0.000155979
5 *387:A1 *239:13 7.72537e-06
6 *389:A1 *478:A 0
7 *389:A1 *110:12 0
8 *389:A1 *148:22 1.83411e-06
9 *389:A1 *210:10 0
10 *389:A1 *221:33 3.19164e-07
11 *389:A1 *223:9 0.00020446
12 *389:A1 *239:13 3.93732e-06
13 *26:12 *387:A1 0
14 *64:14 *387:A1 0
*RES
1 *386:ZN *75:4 5 
2 *75:4 *389:A1 29.8571 
3 *75:4 *387:A1 18.4286 
*END

*D_NET *76 1.74261e-05
*CONN
*I *393:A1 I *D AND4_X1
*I *390:ZN O *D INV_X1
*CAP
1 *393:A1 8.71307e-06
2 *390:ZN 8.71307e-06
*RES
1 *390:ZN *393:A1 10.9286 
*END

*D_NET *77 0.000693594
*CONN
*I *474:A I *D OAI21_X1
*I *401:A2 I *D AND3_X1
*I *393:A3 I *D AND4_X1
*I *391:ZN O *D NOR2_X1
*CAP
1 *474:A 2.81599e-05
2 *401:A2 5.79e-06
3 *393:A3 3.43653e-05
4 *391:ZN 3.67776e-05
5 *77:23 4.51862e-05
6 *77:10 8.23793e-05
7 *393:A3 *393:A2 2.62128e-05
8 *393:A3 *393:A4 2.02033e-05
9 *393:A3 *401:A1 5.41015e-05
10 *393:A3 *192:14 1.68643e-06
11 *393:A3 *246:24 5.41015e-05
12 *401:A2 *401:A1 7.19036e-06
13 *401:A2 *401:A3 2.39679e-06
14 *401:A2 *404:A2 1.68643e-06
15 *474:A *461:A4 7.19036e-06
16 *474:A *176:8 5.46432e-05
17 *474:A *183:14 2.52965e-06
18 *474:A *245:25 1.36837e-05
19 *77:10 *391:A2 3.27845e-05
20 *77:10 *401:A3 3.23723e-07
21 *77:10 *404:A2 0
22 *77:10 *247:29 7.72537e-06
23 *77:10 *248:46 1.2087e-05
24 *77:23 *393:A4 3.72759e-06
25 *77:23 *401:A1 2.89018e-05
26 *77:23 *245:25 4.12796e-06
27 *12:12 *474:A 7.45554e-05
28 *12:12 *77:10 6.8609e-06
29 *12:12 *77:23 2.6975e-05
30 *12:21 *474:A 1.72405e-05
*RES
1 *391:ZN *77:10 15.1786 
2 *77:10 *393:A3 16.4286 
3 *77:10 *77:23 2.28572 
4 *77:23 *401:A2 10.75 
5 *77:23 *474:A 15.75 
*END

*D_NET *78 0.00132247
*CONN
*I *403:A2 I *D NAND2_X1
*I *405:A2 I *D AND2_X1
*I *401:A3 I *D AND3_X1
*I *393:A4 I *D AND4_X1
*I *392:ZN O *D AND3_X1
*CAP
1 *403:A2 4.92831e-06
2 *405:A2 6.03184e-06
3 *401:A3 6.16226e-06
4 *393:A4 4.32188e-05
5 *392:ZN 9.17873e-05
6 *78:18 7.64311e-05
7 *78:16 4.54439e-05
8 *78:12 0.000109078
9 *393:A4 *292:A3 5.41015e-05
10 *393:A4 *192:14 7.19036e-06
11 *393:A4 *203:18 1.41532e-05
12 *393:A4 *203:22 0
13 *393:A4 *246:24 4.24402e-05
14 *393:A4 *248:31 3.02372e-05
15 *401:A3 *404:A2 7.19036e-06
16 *403:A2 *257:23 7.19036e-06
17 *403:A2 *261:35 1.68643e-06
18 *405:A2 *248:25 2.39679e-06
19 *405:A2 *248:31 7.19036e-06
20 *405:A2 *261:35 7.19036e-06
21 *78:12 *404:A3 1.82068e-05
22 *78:12 *458:A3 3.27278e-05
23 *78:12 *184:8 0.000271437
24 *78:12 *203:18 5.0635e-05
25 *78:12 *257:23 7.72537e-06
26 *78:12 *261:35 1.45225e-05
27 *78:16 *203:18 7.47756e-06
28 *78:18 *203:18 3.01743e-06
29 *78:18 *248:31 0.000113248
30 *393:A3 *393:A4 2.02033e-05
31 *401:A2 *401:A3 2.39679e-06
32 *12:12 *393:A4 4.1178e-05
33 *12:12 *78:18 6.76399e-05
34 *12:21 *78:16 4.18985e-05
35 *12:21 *78:18 6.20566e-05
36 *77:10 *401:A3 3.23723e-07
37 *77:23 *393:A4 3.72759e-06
*RES
1 *392:ZN *78:12 32.75 
2 *78:12 *78:16 7.28572 
3 *78:16 *78:18 7.03572 
4 *78:18 *393:A4 18.4643 
5 *78:18 *401:A3 10.75 
6 *78:16 *405:A2 10.75 
7 *78:12 *403:A2 5.75 
*END

*D_NET *79 9.88295e-05
*CONN
*I *396:A2 I *D NOR3_X1
*I *395:ZN O *D INV_X1
*CAP
1 *396:A2 3.05524e-05
2 *395:ZN 3.05524e-05
3 *396:A2 *396:A1 2.21061e-05
4 *396:A2 *173:8 0
5 *396:A2 *213:30 3.63475e-06
6 *396:A3 *396:A2 1.19839e-05
*RES
1 *395:ZN *396:A2 13.8571 
*END

*D_NET *80 0.000226662
*CONN
*I *398:A1 I *D NOR2_X1
*I *397:ZN O *D INV_X1
*CAP
1 *398:A1 4.1537e-05
2 *397:ZN 4.1537e-05
3 *398:A1 *461:A1 0
4 *398:A1 *152:12 5.46432e-05
5 *398:A1 *183:20 1.78501e-05
6 *398:A1 *244:21 5.46432e-05
7 *398:A2 *398:A1 1.40548e-05
8 *474:B2 *398:A1 2.39679e-06
*RES
1 *397:ZN *398:A1 26.7143 
*END

*D_NET *81 0.000184126
*CONN
*I *400:A2 I *D AND4_X1
*I *399:ZN O *D NOR3_X1
*CAP
1 *400:A2 8.71622e-05
2 *399:ZN 8.71622e-05
3 *400:A2 *400:A1 2.39679e-06
4 *400:A2 *251:43 6.56185e-06
5 *400:A4 *400:A2 8.43215e-07
6 *409:A2 *400:A2 0
*RES
1 *399:ZN *400:A2 19.0714 
*END

*D_NET *82 0.000362275
*CONN
*I *404:A2 I *D NOR3_X1
*I *402:ZN O *D INV_X1
*CAP
1 *404:A2 0.000154681
2 *402:ZN 0.000154681
3 *404:A2 *391:A1 1.21774e-06
4 *404:A2 *401:A1 4.32144e-07
5 *404:A2 *404:A1 3.045e-06
6 *404:A2 *183:14 1.23573e-05
7 *404:A2 *192:14 0
8 *404:A2 *247:23 3.88456e-06
9 *404:A2 *247:29 7.29164e-07
10 *404:A2 *248:46 7.68129e-06
11 *401:A2 *404:A2 1.68643e-06
12 *401:A3 *404:A2 7.19036e-06
13 *474:B2 *404:A2 1.37761e-05
14 *12:12 *404:A2 9.11897e-07
15 *77:10 *404:A2 0
*RES
1 *402:ZN *404:A2 27.5714 
*END

*D_NET *83 0.00154034
*CONN
*I *488:A4 I *D NAND4_X1
*I *404:A3 I *D NOR3_X1
*I *403:ZN O *D NAND2_X1
*CAP
1 *488:A4 0
2 *404:A3 0.000137809
3 *403:ZN 0.00015682
4 *83:28 0.000350239
5 *83:26 0.00036925
6 *404:A3 *391:A1 2.94435e-05
7 *404:A3 *458:A3 1.76507e-05
8 *404:A3 *177:10 4.80378e-06
9 *404:A3 *184:8 3.80754e-05
10 *404:A3 *261:35 6.16696e-06
11 *404:A3 *265:43 0
12 *83:26 *458:A2 1.08036e-06
13 *83:26 *463:A2 0
14 *83:26 *253:33 1.32323e-05
15 *83:26 *257:23 2.83289e-05
16 *83:28 *489:A1 8.22158e-05
17 *83:28 *178:10 2.37916e-06
18 *83:28 *178:21 5.87477e-05
19 *83:28 *214:8 0.000203846
20 *83:28 *253:33 3.66781e-06
21 *83:28 *269:39 1.83737e-05
22 *78:12 *404:A3 1.82068e-05
*RES
1 *403:ZN *404:A3 36.2143 
2 *403:ZN *83:26 12.75 
3 *83:26 *83:28 45.7143 
4 *83:28 *488:A4 10 
*END

*D_NET *84 5.55922e-05
*CONN
*I *408:A1 I *D AND4_X1
*I *406:ZN O *D INV_X1
*CAP
1 *408:A1 1.74525e-05
2 *406:ZN 1.74525e-05
3 *408:A1 *302:A2 1.32348e-05
4 *408:A1 *302:A3 0
5 *408:A1 *406:A 4.325e-06
6 *408:A1 *254:37 7.29164e-07
7 *408:A1 *255:37 2.39826e-06
8 *408:A1 *257:37 0
*RES
1 *406:ZN *408:A1 12.1786 
*END

*D_NET *85 0.000546391
*CONN
*I *470:A2 I *D NOR2_X1
*I *408:A4 I *D AND4_X1
*I *420:A3 I *D AND3_X1
*I *407:ZN O *D NOR2_X1
*CAP
1 *470:A2 3.72908e-05
2 *408:A4 1.19412e-05
3 *420:A3 0
4 *407:ZN 3.18707e-05
5 *85:19 8.90811e-05
6 *85:10 7.17197e-05
7 *408:A4 *477:A1 0
8 *408:A4 *254:37 1.43238e-06
9 *470:A2 *470:A1 8.43215e-07
10 *470:A2 *477:A1 2.39679e-06
11 *470:A2 *130:20 1.96775e-05
12 *470:A2 *254:37 7.16188e-07
13 *85:10 *302:A4 2.94435e-05
14 *85:10 *265:43 0.000114989
15 *85:10 *273:37 3.18642e-05
16 *85:19 *477:A1 0
17 *408:A3 *408:A4 2.9549e-06
18 *408:A3 *85:19 2.9832e-05
19 *21:69 *85:19 2.39679e-06
20 *22:14 *470:A2 1.13642e-05
21 *22:14 *85:19 5.65769e-05
*RES
1 *407:ZN *85:10 21.3571 
2 *85:10 *420:A3 5 
3 *85:10 *85:19 6.85715 
4 *85:19 *408:A4 6.67857 
5 *85:19 *470:A2 10.25 
*END

*D_NET *86 0.00120263
*CONN
*I *476:C2 I *D OAI211_X1
*I *460:C1 I *D OAI211_X1
*I *413:A1 I *D NOR2_X1
*I *415:A2 I *D NOR2_X1
*I *414:A3 I *D NOR3_X1
*I *409:ZN O *D NAND2_X1
*CAP
1 *476:C2 1.94966e-05
2 *460:C1 2.95458e-05
3 *413:A1 2.96611e-05
4 *415:A2 4.85419e-05
5 *414:A3 0
6 *409:ZN 0
7 *86:16 8.17365e-05
8 *86:10 8.51009e-05
9 *86:8 0.000131485
10 *86:4 9.91905e-05
11 *413:A1 *413:A2 2.43548e-06
12 *413:A1 *89:6 1.33047e-05
13 *413:A1 *115:16 2.52965e-06
14 *413:A1 *181:12 7.72537e-06
15 *415:A2 *410:A 1.87369e-06
16 *415:A2 *414:A2 7.72537e-06
17 *415:A2 *461:A4 1.97744e-05
18 *415:A2 *115:16 2.16072e-07
19 *415:A2 *183:14 1.82068e-05
20 *415:A2 *253:45 1.49938e-05
21 *460:C1 *460:B 3.65322e-06
22 *460:C1 *115:16 2.90423e-05
23 *460:C1 *261:39 1.11792e-06
24 *476:C2 *476:A 2.83077e-06
25 *86:8 *412:A1 0.000108205
26 *86:8 *476:C1 8.69025e-05
27 *86:8 *181:12 7.51424e-05
28 *86:10 *412:A1 9.44188e-05
29 *86:10 *88:8 2.37916e-06
30 *86:10 *115:16 8.85938e-05
31 *86:10 *181:12 2.08098e-06
32 *86:16 *410:A 1.21774e-06
33 *86:16 *414:A1 3.13219e-05
34 *86:16 *414:A2 7.85433e-06
35 *86:16 *88:8 2.3767e-06
36 *86:16 *115:16 2.99116e-05
37 *86:16 *182:12 1.96373e-05
38 *409:A1 *476:C2 2.39679e-06
*RES
1 *409:ZN *86:4 5 
2 *86:4 *86:8 22.2143 
3 *86:8 *86:10 5.67857 
4 *86:10 *86:16 9.89286 
5 *86:16 *414:A3 5 
6 *86:16 *415:A2 11.6786 
7 *86:10 *413:A1 13.75 
8 *86:8 *460:C1 13.75 
9 *86:4 *476:C2 7.17857 
*END

*D_NET *87 0.000299073
*CONN
*I *412:A2 I *D NAND3_X1
*I *415:A1 I *D NOR2_X1
*I *410:ZN O *D INV_X1
*CAP
1 *412:A2 2.06619e-05
2 *415:A1 4.26309e-05
3 *410:ZN 2.02853e-05
4 *87:8 8.35781e-05
5 *412:A2 *411:A 1.54649e-06
6 *412:A2 *412:A1 2.75346e-06
7 *412:A2 *412:A3 7.72537e-06
8 *412:A2 *461:A4 2.16072e-07
9 *412:A2 *115:16 1.68643e-06
10 *412:A2 *198:16 1.2453e-05
11 *412:A2 *267:17 2.84765e-06
12 *415:A1 *411:A 3.51992e-06
13 *415:A1 *461:A4 1.80879e-05
14 *415:A1 *115:16 0
15 *415:A1 *261:39 0
16 *87:8 *198:16 6.73899e-05
17 *87:8 *267:17 1.36901e-05
*RES
1 *410:ZN *87:8 13.6429 
2 *87:8 *415:A1 15.1786 
3 *87:8 *412:A2 12.6786 
*END

*D_NET *88 0.000251581
*CONN
*I *412:A3 I *D NAND3_X1
*I *414:A2 I *D NOR3_X1
*I *411:ZN O *D INV_X1
*CAP
1 *412:A3 4.08115e-06
2 *414:A2 1.74998e-05
3 *411:ZN 1.77984e-05
4 *88:8 3.93793e-05
5 *412:A3 *115:16 7.72537e-06
6 *414:A2 *414:A1 9.07548e-06
7 *414:A2 *115:16 1.87369e-06
8 *414:A2 *198:16 4.18985e-05
9 *88:8 *412:A1 1.65484e-05
10 *88:8 *198:16 6.76399e-05
11 *412:A2 *412:A3 7.72537e-06
12 *415:A2 *414:A2 7.72537e-06
13 *86:10 *88:8 2.37916e-06
14 *86:16 *414:A2 7.85433e-06
15 *86:16 *88:8 2.3767e-06
*RES
1 *411:ZN *88:8 13.6429 
2 *88:8 *414:A2 13.0357 
3 *88:8 *412:A3 10.75 
*END

*D_NET *89 0.00022345
*CONN
*I *460:C2 I *D OAI211_X1
*I *413:A2 I *D NOR2_X1
*I *412:ZN O *D NAND3_X1
*CAP
1 *460:C2 2.5984e-05
2 *413:A2 4.35206e-05
3 *412:ZN 2.37218e-05
4 *89:6 9.32264e-05
5 *413:A2 *115:16 0
6 *413:A2 *261:39 2.83077e-06
7 *460:C2 *181:12 1.16091e-05
8 *89:6 *261:39 6.81701e-06
9 *413:A1 *413:A2 2.43548e-06
10 *413:A1 *89:6 1.33047e-05
*RES
1 *412:ZN *89:6 8.25 
2 *89:6 *413:A2 10.4643 
3 *89:6 *460:C2 17.9643 
*END

*D_NET *90 0.000133229
*CONN
*I *419:A1 I *D AND4_X1
*I *416:ZN O *D INV_X1
*CAP
1 *419:A1 2.32121e-05
2 *416:ZN 2.32121e-05
3 *419:A1 *417:A1 1.1067e-05
4 *419:A1 *417:A2 3.19164e-07
5 *419:A1 *419:A2 7.19036e-06
6 *419:A1 *91:8 4.24402e-05
7 *419:A1 *191:10 2.57883e-05
*RES
1 *416:ZN *419:A1 24.3929 
*END

*D_NET *91 0.00034393
*CONN
*I *429:A2 I *D AND3_X1
*I *419:A3 I *D AND4_X1
*I *417:ZN O *D NOR2_X1
*CAP
1 *429:A2 6.38282e-05
2 *419:A3 0
3 *417:ZN 2.70474e-05
4 *91:8 9.08757e-05
5 *429:A2 *295:A4 3.23723e-07
6 *429:A2 *419:A2 0
7 *429:A2 *419:A4 1.67645e-05
8 *429:A2 *429:A1 2.39679e-06
9 *429:A2 *429:A3 4.79358e-06
10 *429:A2 *92:23 5.46177e-05
11 *429:A2 *188:8 7.19036e-06
12 *429:A2 *191:10 1.16067e-05
13 *91:8 *417:A1 1.72405e-05
14 *91:8 *191:10 4.80515e-06
15 *419:A1 *91:8 4.24402e-05
*RES
1 *417:ZN *91:8 13.6429 
2 *91:8 *419:A3 10 
3 *91:8 *429:A2 18.7143 
*END

*D_NET *92 0.001361
*CONN
*I *429:A3 I *D AND3_X1
*I *473:A I *D OAI21_X1
*I *430:A2 I *D NAND2_X1
*I *432:A2 I *D NAND2_X1
*I *419:A4 I *D AND4_X1
*I *418:ZN O *D NOR3_X1
*CAP
1 *429:A3 6.31028e-06
2 *473:A 7.07197e-06
3 *430:A2 4.01453e-05
4 *432:A2 3.66872e-05
5 *419:A4 3.32755e-05
6 *418:ZN 0.000106756
7 *92:29 0.000127424
8 *92:27 9.86979e-05
9 *92:23 9.51248e-05
10 *92:8 0.000187811
11 *419:A4 *419:A2 8.43215e-07
12 *419:A4 *191:10 1.78252e-06
13 *419:A4 *202:8 0
14 *430:A2 *430:A1 2.05207e-05
15 *430:A2 *431:A1 7.19036e-06
16 *430:A2 *432:A1 8.94115e-06
17 *432:A2 *432:A1 3.09411e-06
18 *432:A2 *433:A 0
19 *432:A2 *99:12 0
20 *432:A2 *261:41 8.14241e-05
21 *473:A *473:B1 7.19036e-06
22 *473:A *259:15 2.16072e-07
23 *92:8 *191:10 3.79933e-05
24 *92:8 *202:8 0
25 *92:27 *295:A4 7.58429e-05
26 *92:27 *416:A 4.28691e-05
27 *92:27 *188:10 3.69646e-06
28 *92:27 *205:10 1.91119e-06
29 *92:27 *258:17 1.78091e-05
30 *92:27 *259:15 1.61002e-06
31 *92:29 *295:A4 1.58502e-05
32 *92:29 *416:A 2.74386e-05
33 *92:29 *261:41 2.51997e-05
34 *92:29 *261:52 0.00010561
35 *418:A3 *92:8 6.99525e-06
36 *429:A2 *419:A4 1.67645e-05
37 *429:A2 *429:A3 4.79358e-06
38 *429:A2 *92:23 5.46177e-05
39 *15:8 *92:27 4.24381e-05
40 *18:20 *92:8 9.05228e-06
*RES
1 *418:ZN *92:8 24.5 
2 *92:8 *419:A4 14.2143 
3 *92:8 *92:23 11.25 
4 *92:23 *92:27 12.7143 
5 *92:27 *92:29 7.71429 
6 *92:29 *432:A2 15.0714 
7 *92:29 *430:A2 15.25 
8 *92:27 *473:A 10.75 
9 *92:23 *429:A3 5.75 
*END

*D_NET *93 0.000277976
*CONN
*I *423:A2 I *D NOR3_X1
*I *421:ZN O *D INV_X1
*CAP
1 *423:A2 7.49312e-05
2 *421:ZN 7.49312e-05
3 *423:A2 *421:A 4.12796e-06
4 *423:A2 *423:A1 5.1586e-05
5 *423:A2 *423:A3 2.39679e-06
6 *423:A2 *424:A1 5.47625e-05
7 *423:A2 *130:20 0
8 *423:A2 *189:29 4.46096e-06
9 *423:A2 *256:13 5.52959e-06
10 *423:A2 *257:39 4.97191e-06
11 *423:A2 *273:37 0
12 *22:14 *423:A2 2.77917e-07
*RES
1 *421:ZN *423:A2 29.3929 
*END

*D_NET *94 0.00196519
*CONN
*I *486:B2 I *D OAI21_X1
*I *470:A1 I *D NOR2_X1
*I *490:A I *D AOI21_X1
*I *423:A3 I *D NOR3_X1
*I *422:ZN O *D OR4_X1
*CAP
1 *486:B2 2.52768e-05
2 *470:A1 7.74917e-06
3 *490:A 2.70922e-05
4 *423:A3 4.29811e-05
5 *422:ZN 0.000102115
6 *94:29 4.66945e-05
7 *94:27 0.000174624
8 *94:10 0.00028259
9 *423:A3 *130:20 0
10 *423:A3 *186:12 0.000131211
11 *423:A3 *252:17 8.63585e-06
12 *470:A1 *477:A1 4.32144e-07
13 *470:A1 *185:40 4.32144e-07
14 *486:B2 *486:A 2.16072e-07
15 *486:B2 *176:19 9.38792e-05
16 *490:A *176:19 9.15917e-05
17 *490:A *254:37 7.19036e-06
18 *490:A *255:23 3.09143e-06
19 *94:10 *186:12 0.000127824
20 *94:10 *252:9 2.32054e-05
21 *94:10 *269:57 1.07788e-05
22 *94:27 *424:A1 1.86809e-06
23 *94:27 *457:A1 3.17618e-05
24 *94:27 *185:40 9.99189e-05
25 *94:27 *251:31 7.9915e-05
26 *94:27 *252:17 1.80284e-05
27 *94:29 *176:19 5.48932e-05
28 *422:A3 *94:10 9.67818e-06
29 *423:A2 *423:A3 2.39679e-06
30 *470:A2 *470:A1 8.43215e-07
31 *486:B1 *486:B2 8.93834e-05
32 *486:B1 *94:29 4.18985e-05
33 *19:40 *94:10 1.88316e-05
34 *20:16 *94:10 0
35 *21:10 *423:A3 2.54476e-05
36 *21:10 *94:10 2.89018e-05
37 *21:12 *423:A3 3.8984e-05
38 *21:14 *423:A3 0.000104368
39 *21:69 *94:27 0
40 *22:14 *470:A1 2.39679e-06
41 *22:14 *94:27 5.85076e-06
42 *22:16 *490:A 9.00084e-05
43 *22:16 *94:29 1.2203e-05
*RES
1 *422:ZN *94:10 25.2857 
2 *94:10 *423:A3 19.8214 
3 *94:10 *94:27 31.25 
4 *94:27 *94:29 2.96429 
5 *94:29 *490:A 15.75 
6 *94:29 *470:A1 10.75 
7 *94:27 *486:B2 15.75 
*END

*D_NET *95 0.000253208
*CONN
*I *428:A1 I *D AND4_X1
*I *425:ZN O *D INV_X1
*CAP
1 *428:A1 5.35397e-05
2 *425:ZN 5.35397e-05
3 *428:A1 *428:A2 2.77436e-05
4 *428:A1 *438:A1 1.59548e-05
5 *428:A1 *97:10 4.40064e-06
6 *428:A1 *97:27 4.40064e-06
7 *428:A1 *197:10 0
8 *20:10 *428:A1 9.36292e-05
*RES
1 *425:ZN *428:A1 28.75 
*END

*D_NET *96 0.00141071
*CONN
*I *439:A1 I *D AND2_X1
*I *492:A I *D OAI211_X1
*I *428:A3 I *D AND4_X1
*I *441:A3 I *D AND3_X1
*I *442:A1 I *D NAND2_X1
*I *459:A I *D OAI21_X1
*I *426:ZN O *D NOR2_X1
*CAP
1 *439:A1 0
2 *492:A 0.00016518
3 *428:A3 7.87677e-05
4 *441:A3 0
5 *442:A1 8.71307e-06
6 *459:A 0
7 *426:ZN 3.35538e-05
8 *96:32 0.00032093
9 *96:19 0.000208034
10 *96:8 0.000130489
11 *96:6 4.1704e-05
12 *428:A3 *428:A2 6.755e-05
13 *428:A3 *428:A4 1.76665e-06
14 *428:A3 *441:A2 5.71685e-06
15 *428:A3 *471:B2 1.21774e-06
16 *428:A3 *97:27 5.86275e-06
17 *428:A3 *193:14 2.74621e-05
18 *428:A3 *263:41 2.97531e-05
19 *492:A *441:A1 5.67816e-06
20 *492:A *441:A2 2.39679e-06
21 *492:A *492:B 1.26998e-05
22 *492:A *492:C1 2.39679e-06
23 *492:A *193:14 0
24 *492:A *266:27 8.72242e-05
25 *96:6 *472:C1 0
26 *96:6 *103:8 1.19839e-05
27 *96:6 *114:8 5.81678e-06
28 *96:6 *194:14 1.39839e-06
29 *96:19 *427:A2 1.39839e-06
30 *96:19 *438:A1 0
31 *96:19 *443:A2 2.39679e-06
32 *96:19 *459:B2 9.47042e-05
33 *96:19 *488:A1 2.36084e-05
34 *96:19 *97:10 0
35 *96:19 *263:35 2.94407e-06
36 *96:19 *266:33 0
37 *96:19 *266:37 0
38 *96:32 *441:A1 1.045e-05
39 *96:32 *443:A2 2.84765e-06
40 *96:32 *203:18 0
41 *96:32 *263:41 1.60643e-05
42 *96:32 *265:43 0
43 *96:32 *265:54 0
44 *20:16 *96:6 0
*RES
1 *426:ZN *96:6 8.75 
2 *96:6 *96:8 0.928572 
3 *96:8 *459:A 5 
4 *96:8 *96:19 15.9286 
5 *96:19 *442:A1 5.92857 
6 *96:19 *96:32 17.7143 
7 *96:32 *441:A3 5 
8 *96:32 *428:A3 17.3571 
9 *96:32 *492:A 26.4286 
10 *96:6 *439:A1 5 
*END

*D_NET *97 0.00061355
*CONN
*I *471:B2 I *D OAI21_X1
*I *428:A4 I *D AND4_X1
*I *438:A2 I *D AND2_X1
*I *427:ZN O *D NOR2_X1
*CAP
1 *471:B2 9.36115e-05
2 *428:A4 8.15016e-06
3 *438:A2 5.1655e-05
4 *427:ZN 3.56241e-05
5 *97:27 0.000148641
6 *97:10 0.000134158
7 *438:A2 *438:A1 3.77377e-05
8 *438:A2 *186:12 5.74523e-06
9 *471:B2 *438:A1 0
10 *471:B2 *472:C1 2.952e-05
11 *471:B2 *186:12 1.72858e-06
12 *97:10 *438:A1 1.22742e-05
13 *97:10 *197:10 4.177e-06
14 *97:27 *186:18 8.88497e-06
15 *97:27 *197:10 5.51369e-06
16 *428:A1 *97:10 4.40064e-06
17 *428:A1 *97:27 4.40064e-06
18 *428:A3 *428:A4 1.76665e-06
19 *428:A3 *471:B2 1.21774e-06
20 *428:A3 *97:27 5.86275e-06
21 *471:B1 *471:B2 4.77786e-06
22 *19:12 *471:B2 1.1622e-05
23 *20:10 *97:27 2.08095e-06
24 *96:19 *97:10 0
*RES
1 *427:ZN *97:10 14.3571 
2 *97:10 *438:A2 16 
3 *97:10 *97:27 10.5714 
4 *97:27 *428:A4 5.92857 
5 *97:27 *471:B2 15.25 
*END

*D_NET *98 9.8502e-05
*CONN
*I *431:A2 I *D NOR2_X1
*I *430:ZN O *D NAND2_X1
*CAP
1 *431:A2 2.16586e-05
2 *430:ZN 2.16586e-05
3 *431:A2 *262:24 3.02351e-05
4 *431:A2 *262:35 2.49497e-05
*RES
1 *430:ZN *431:A2 22.9643 
*END

*D_NET *99 0.000430808
*CONN
*I *460:A I *D OAI211_X1
*I *433:A I *D INV_X1
*I *432:ZN O *D NAND2_X1
*CAP
1 *460:A 8.49395e-05
2 *433:A 3.45747e-05
3 *432:ZN 7.30756e-05
4 *99:12 0.00019259
5 *433:A *261:39 0
6 *460:A *460:B 2.16072e-07
7 *460:A *114:10 4.26902e-05
8 *460:A *181:12 2.72171e-06
9 *460:A *261:39 0
10 *99:12 *261:41 0
11 *432:A2 *433:A 0
12 *432:A2 *99:12 0
*RES
1 *432:ZN *99:12 23.6071 
2 *99:12 *433:A 8.75 
3 *99:12 *460:A 24.7143 
*END

*D_NET *100 1.74261e-05
*CONN
*I *437:A1 I *D AND4_X1
*I *434:ZN O *D INV_X1
*CAP
1 *437:A1 8.71307e-06
2 *434:ZN 8.71307e-06
*RES
1 *434:ZN *437:A1 10.9286 
*END

*D_NET *101 0.00299647
*CONN
*I *437:A3 I *D AND4_X1
*I *449:A2 I *D AND2_X1
*I *446:A2 I *D AND3_X1
*I *472:C1 I *D AOI211_X1
*I *488:A1 I *D NAND4_X1
*I *435:ZN O *D NOR4_X1
*CAP
1 *437:A3 0
2 *449:A2 2.96634e-05
3 *446:A2 1.15959e-05
4 *472:C1 0.000111931
5 *488:A1 0.000217065
6 *435:ZN 0.000222065
7 *101:56 9.13363e-05
8 *101:50 0.000102751
9 *101:10 0.000356368
10 *101:8 0.000302112
11 *446:A2 *446:A1 1.19839e-05
12 *446:A2 *102:10 8.43215e-07
13 *449:A2 *436:A1 2.39679e-06
14 *449:A2 *456:A3 8.56664e-06
15 *449:A2 *194:14 1.39834e-05
16 *449:A2 *198:8 3.8736e-05
17 *449:A2 *199:18 4.12459e-06
18 *449:A2 *200:10 2.39679e-06
19 *449:A2 *270:38 1.26998e-05
20 *472:C1 *472:C2 8.15777e-06
21 *472:C1 *126:10 4.7875e-06
22 *472:C1 *186:12 2.77939e-05
23 *488:A1 *443:A2 4.46057e-06
24 *488:A1 *459:B2 8.67675e-05
25 *488:A1 *486:A 0
26 *488:A1 *489:A1 0
27 *488:A1 *489:A2 2.16072e-07
28 *488:A1 *489:A3 4.0008e-06
29 *488:A1 *180:10 0.00016868
30 *488:A1 *252:9 0.00016843
31 *488:A1 *263:35 0
32 *101:8 *273:45 0.000123828
33 *101:10 *180:10 0.000171847
34 *101:10 *252:9 0.000167351
35 *101:50 *299:A3 0
36 *101:50 *437:A4 2.39679e-06
37 *101:50 *180:10 1.72426e-05
38 *101:50 *197:8 2.16072e-07
39 *101:50 *197:10 1.459e-05
40 *101:50 *203:16 0
41 *101:50 *250:33 1.43544e-05
42 *101:50 *252:9 0.000126114
43 *101:56 *437:A2 2.77965e-05
44 *101:56 *437:A4 4.76866e-05
45 *101:56 *111:10 1.04526e-05
46 *101:56 *194:14 4.45767e-06
47 *101:56 *198:8 5.46432e-05
48 *101:56 *203:16 0
49 *426:A1 *472:C1 0
50 *442:A2 *488:A1 6.68799e-05
51 *471:B1 *101:8 0
52 *471:B2 *472:C1 2.952e-05
53 *488:A2 *488:A1 2.39679e-06
54 *19:12 *101:8 0
55 *20:16 *488:A1 7.71779e-05
56 *96:6 *472:C1 0
57 *96:19 *488:A1 2.36084e-05
*RES
1 *435:ZN *101:8 36.25 
2 *101:8 *101:10 9.07143 
3 *101:10 *488:A1 44.4286 
4 *101:10 *472:C1 32.9286 
5 *101:8 *101:50 13.7857 
6 *101:50 *101:56 12.7143 
7 *101:56 *446:A2 11.25 
8 *101:56 *449:A2 14.8929 
9 *101:50 *437:A3 5 
*END

*D_NET *102 0.000843972
*CONN
*I *446:A3 I *D AND3_X1
*I *437:A4 I *D AND4_X1
*I *471:A I *D OAI21_X1
*I *436:ZN O *D NOR2_X1
*CAP
1 *446:A3 0
2 *437:A4 4.41454e-05
3 *471:A 8.14474e-05
4 *436:ZN 4.28395e-05
5 *102:14 0.000135121
6 *102:10 5.23678e-05
7 *437:A4 *446:A1 2.16491e-05
8 *437:A4 *456:A2 4.32144e-07
9 *437:A4 *456:A4 2.39679e-06
10 *437:A4 *203:16 0
11 *471:A *456:A3 2.94455e-05
12 *471:A *456:A4 4.44127e-06
13 *471:A *198:8 3.66089e-05
14 *471:A *198:10 0.000207505
15 *471:A *203:16 1.29373e-05
16 *102:10 *436:A1 1.50843e-05
17 *102:10 *203:8 0
18 *102:14 *456:A3 5.19786e-05
19 *102:14 *198:8 5.46453e-05
20 *446:A2 *102:10 8.43215e-07
21 *101:50 *437:A4 2.39679e-06
22 *101:56 *437:A4 4.76866e-05
*RES
1 *436:ZN *102:10 10.1071 
2 *102:10 *102:14 7.96429 
3 *102:14 *471:A 23.1429 
4 *102:14 *437:A4 15.75 
5 *102:10 *446:A3 5 
*END

*D_NET *103 0.000197996
*CONN
*I *439:A2 I *D AND2_X1
*I *459:B1 I *D OAI21_X1
*I *438:ZN O *D AND2_X1
*CAP
1 *439:A2 0
2 *459:B1 1.19874e-05
3 *438:ZN 5.24026e-05
4 *103:8 6.439e-05
5 *459:B1 *252:9 1.45779e-05
6 *459:B1 *269:57 4.24381e-05
7 *103:8 *438:A1 2.16072e-07
8 *96:6 *103:8 1.19839e-05
*RES
1 *438:ZN *103:8 10.5714 
2 *103:8 *459:B1 17.2857 
3 *103:8 *439:A2 5 
*END

*D_NET *104 0.000169492
*CONN
*I *441:A1 I *D AND3_X1
*I *443:A1 I *D NOR2_X1
*I *440:ZN O *D INV_X1
*CAP
1 *441:A1 2.01307e-05
2 *443:A1 3.08571e-05
3 *440:ZN 0
4 *104:4 5.09878e-05
5 *441:A1 *441:A2 2.39679e-06
6 *441:A1 *203:18 4.177e-06
7 *441:A1 *266:27 1.26998e-05
8 *443:A1 *440:A 2.39679e-06
9 *443:A1 *196:14 2.70833e-06
10 *443:A1 *263:35 2.09855e-05
11 *443:A1 *266:27 6.02349e-06
12 *443:A1 *266:33 0
13 *492:A *441:A1 5.67816e-06
14 *96:32 *441:A1 1.045e-05
*RES
1 *440:ZN *104:4 5 
2 *104:4 *443:A1 9.46429 
3 *104:4 *441:A1 17.8571 
*END

*D_NET *105 0.000295446
*CONN
*I *443:A2 I *D NOR2_X1
*I *486:A I *D OAI21_X1
*I *442:ZN O *D NAND2_X1
*CAP
1 *443:A2 3.14904e-05
2 *486:A 8.28139e-05
3 *442:ZN 0
4 *105:6 0.000114304
5 *443:A2 *203:18 9.52324e-06
6 *443:A2 *263:35 2.37137e-05
7 *486:A *203:18 2.36789e-05
8 *486:A *251:31 0
9 *486:B2 *486:A 2.16072e-07
10 *488:A1 *443:A2 4.46057e-06
11 *488:A1 *486:A 0
12 *96:19 *443:A2 2.39679e-06
13 *96:32 *443:A2 2.84765e-06
*RES
1 *442:ZN *105:6 10 
2 *105:6 *486:A 19.4286 
3 *105:6 *443:A2 14.5357 
*END

*D_NET *106 0.000257566
*CONN
*I *445:A2 I *D NOR4_X1
*I *444:ZN O *D INV_X1
*CAP
1 *445:A2 6.0537e-05
2 *444:ZN 6.0537e-05
3 *445:A2 *298:A1 7.40328e-06
4 *445:A2 *273:59 2.83289e-05
5 *298:A4 *445:A2 0
6 *445:A3 *445:A2 6.37281e-06
7 *451:A3 *445:A2 3.8632e-05
8 *16:56 *445:A2 7.72792e-06
9 *16:67 *445:A2 1.54398e-05
10 *17:58 *445:A2 3.25875e-05
*RES
1 *444:ZN *445:A2 19.1786 
*END

*D_NET *107 0.000109155
*CONN
*I *448:A2 I *D NOR3_X1
*I *447:ZN O *D INV_X1
*CAP
1 *448:A2 3.04647e-05
2 *447:ZN 3.04647e-05
3 *448:A2 *448:A1 1.26998e-05
4 *448:A2 *194:14 9.73377e-06
5 *448:A2 *199:18 4.68638e-06
6 *448:A2 *200:29 1.87085e-05
7 *448:A3 *448:A2 2.39679e-06
*RES
1 *447:ZN *448:A2 24.2143 
*END

*D_NET *108 0.000246477
*CONN
*I *451:A1 I *D NOR3_X1
*I *450:ZN O *D INV_X1
*CAP
1 *451:A1 7.28594e-05
2 *450:ZN 7.28594e-05
3 *451:A1 *298:A1 9.65418e-06
4 *451:A1 *450:A 0
5 *451:A1 *272:26 3.4037e-05
6 *451:A1 *273:59 1.61446e-06
7 *16:56 *451:A1 1.68744e-06
8 *16:67 *451:A1 5.13679e-05
9 *16:74 *451:A1 2.39679e-06
*RES
1 *450:ZN *451:A1 19.9286 
*END

*D_NET *109 0.000100948
*CONN
*I *453:A2 I *D NOR2_X1
*I *452:ZN O *D INV_X1
*CAP
1 *453:A2 1.17162e-05
2 *452:ZN 1.17162e-05
3 *453:A2 *202:8 2.2331e-05
4 *453:A2 *274:17 5.51848e-05
*RES
1 *452:ZN *453:A2 22.9643 
*END

*D_NET *110 0.00139098
*CONN
*I *466:A1 I *D NOR4_X1
*I *455:ZN O *D OR3_X1
*CAP
1 *466:A1 0.000127797
2 *455:ZN 0.000191552
3 *110:12 0.000319349
4 *466:A1 *466:A2 2.39679e-06
5 *466:A1 *466:A4 8.46188e-06
6 *466:A1 *468:A4 1.75631e-05
7 *466:A1 *148:12 0
8 *466:A1 *217:15 2.37555e-05
9 *466:A1 *217:21 6.42887e-07
10 *110:12 *478:A 0.000102578
11 *110:12 *148:22 0.000332986
12 *110:12 *221:31 0.000131939
13 *110:12 *223:9 1.46651e-05
14 *110:12 *239:9 8.12204e-05
15 *110:12 *248:15 0
16 *389:A1 *110:12 0
17 *56:14 *110:12 3.60764e-05
*RES
1 *455:ZN *110:12 49 
2 *110:12 *466:A1 20.1786 
*END

*D_NET *111 0.00140677
*CONN
*I *457:A4 I *D OR4_X1
*I *456:ZN O *D OR4_X1
*CAP
1 *457:A4 3.55098e-05
2 *456:ZN 0
3 *111:10 0.000246104
4 *111:6 0.000210594
5 *457:A4 *189:8 3.64868e-05
6 *457:A4 *189:21 2.39679e-06
7 *111:10 *194:14 0.000362085
8 *111:10 *198:8 5.39659e-06
9 *111:10 *198:10 8.36173e-05
10 *111:10 *267:29 3.53129e-05
11 *111:10 *269:47 0.000236572
12 *422:A3 *111:10 2.51177e-05
13 *19:23 *111:10 7.52554e-05
14 *19:25 *111:10 3.94694e-05
15 *21:69 *457:A4 2.39679e-06
16 *101:56 *111:10 1.04526e-05
*RES
1 *456:ZN *111:6 10 
2 *111:6 *111:10 47.3214 
3 *111:10 *457:A4 8.75 
*END

*D_NET *112 0.00196927
*CONN
*I *458:A3 I *D NOR3_X1
*I *457:ZN O *D OR4_X1
*CAP
1 *458:A3 0.000118005
2 *457:ZN 0.000133426
3 *112:12 0.000251431
4 *458:A3 *458:A2 8.43215e-07
5 *458:A3 *203:18 9.49976e-06
6 *458:A3 *253:39 0.000110935
7 *458:A3 *257:23 6.52138e-06
8 *458:A3 *261:35 3.19164e-07
9 *458:A3 *269:43 0.000144358
10 *458:A3 *273:35 0
11 *112:12 *421:A 7.49226e-05
12 *112:12 *424:A1 4.56901e-05
13 *112:12 *197:10 5.49389e-05
14 *112:12 *251:37 0.000462263
15 *112:12 *256:9 0.000478844
16 *404:A3 *458:A3 1.76507e-05
17 *21:69 *112:12 2.68997e-05
18 *78:12 *458:A3 3.27278e-05
*RES
1 *457:ZN *112:12 49.8929 
2 *112:12 *458:A3 35.2143 
*END

*D_NET *113 0.000613682
*CONN
*I *463:A2 I *D NAND4_X1
*I *458:ZN O *D NOR3_X1
*CAP
1 *463:A2 0.000203495
2 *458:ZN 0.000203495
3 *463:A2 *458:A2 4.21607e-06
4 *463:A2 *463:A3 7.19036e-06
5 *463:A2 *253:19 7.72537e-06
6 *463:A2 *253:33 6.42887e-07
7 *463:A2 *257:23 0
8 *463:A2 *269:39 6.28578e-05
9 *463:A2 *273:35 0.000122455
10 *345:A4 *463:A2 1.60494e-06
11 *83:26 *463:A2 0
*RES
1 *458:ZN *463:A2 38.75 
*END

*D_NET *114 0.00128317
*CONN
*I *460:B I *D OAI211_X1
*I *459:ZN O *D OAI21_X1
*CAP
1 *460:B 6.54797e-06
2 *459:ZN 7.06696e-05
3 *114:10 0.000312485
4 *114:8 0.000376607
5 *114:10 *126:10 0.000199314
6 *114:10 *181:12 7.93748e-05
7 *422:A4 *114:10 0.000107413
8 *426:A1 *114:8 9.71574e-06
9 *426:A2 *114:8 1.25189e-05
10 *460:A *460:B 2.16072e-07
11 *460:A *114:10 4.26902e-05
12 *460:C1 *460:B 3.65322e-06
13 *20:16 *114:8 3.94519e-05
14 *20:16 *114:10 1.66988e-05
15 *96:6 *114:8 5.81678e-06
*RES
1 *459:ZN *114:8 19.25 
2 *114:8 *114:10 45.7143 
3 *114:10 *460:B 10.75 
*END

*D_NET *115 0.00125833
*CONN
*I *461:A4 I *D NOR4_X1
*I *460:ZN O *D OAI211_X1
*CAP
1 *461:A4 0.000280781
2 *460:ZN 7.9042e-05
3 *115:16 0.000359823
4 *461:A4 *461:A3 2.75346e-06
5 *461:A4 *475:C2 7.91687e-05
6 *461:A4 *183:14 4.63446e-06
7 *461:A4 *183:20 6.56676e-05
8 *461:A4 *261:39 0
9 *461:A4 *265:33 0
10 *461:A4 *265:41 0.000117343
11 *115:16 *412:A1 1.43238e-06
12 *115:16 *414:A1 7.72792e-06
13 *115:16 *181:12 3.84881e-05
14 *115:16 *182:12 2.52965e-06
15 *115:16 *261:39 1.2087e-05
16 *412:A2 *461:A4 2.16072e-07
17 *412:A2 *115:16 1.68643e-06
18 *412:A3 *115:16 7.72537e-06
19 *413:A1 *115:16 2.52965e-06
20 *413:A2 *115:16 0
21 *414:A2 *115:16 1.87369e-06
22 *415:A1 *461:A4 1.80879e-05
23 *415:A1 *115:16 0
24 *415:A2 *461:A4 1.97744e-05
25 *415:A2 *115:16 2.16072e-07
26 *460:C1 *115:16 2.90423e-05
27 *474:A *461:A4 7.19036e-06
28 *86:10 *115:16 8.85938e-05
29 *86:16 *115:16 2.99116e-05
*RES
1 *460:ZN *115:16 27.7857 
2 *115:16 *461:A4 44.25 
*END

*D_NET *116 0.000609393
*CONN
*I *463:A3 I *D NAND4_X1
*I *461:ZN O *D NOR4_X1
*CAP
1 *463:A3 0.000124954
2 *461:ZN 0.000124954
3 *463:A3 *461:A1 6.06622e-05
4 *463:A3 *247:23 0
5 *463:A3 *253:19 4.13157e-05
6 *463:A3 *265:33 0.000142555
7 *463:A3 *273:23 6.10454e-06
8 *463:A2 *463:A3 7.19036e-06
9 *11:8 *463:A3 4.49583e-06
10 *11:36 *463:A3 9.71605e-05
*RES
1 *461:ZN *463:A3 39.6786 
*END

*D_NET *117 7.5013e-05
*CONN
*I *463:A4 I *D NAND4_X1
*I *462:ZN O *D NOR2_X1
*CAP
1 *463:A4 3.23295e-05
2 *462:ZN 3.23295e-05
3 *463:A4 *253:19 4.47286e-06
4 *463:A4 *257:23 5.88117e-06
*RES
1 *462:ZN *463:A4 13.6786 
*END

*D_NET *118 0.0013797
*CONN
*I *466:A2 I *D NOR4_X1
*I *463:ZN O *D NAND4_X1
*CAP
1 *466:A2 4.57563e-05
2 *463:ZN 0
3 *118:8 0.000591965
4 *118:6 0.000546208
5 *466:A2 *466:A3 6.42074e-05
6 *466:A2 *148:12 0
7 *118:8 *193:20 0
8 *118:8 *242:17 0
9 *118:8 *243:9 0
10 *118:8 *253:19 6.83929e-06
11 *118:8 *263:27 9.11786e-07
12 *118:8 *273:23 1.72405e-05
13 *330:A2 *466:A2 1.82068e-05
14 *344:A2 *118:8 2.183e-06
15 *345:A1 *118:8 2.72417e-06
16 *345:A4 *118:8 0
17 *353:A2 *118:8 4.3074e-05
18 *353:A3 *118:8 7.47756e-06
19 *466:A1 *466:A2 2.39679e-06
20 *487:B1 *118:8 1.20065e-06
21 *492:C2 *118:8 1.41914e-05
22 *11:36 *118:8 1.5117e-05
*RES
1 *463:ZN *118:6 10 
2 *118:6 *118:8 54.5357 
3 *118:8 *466:A2 16.25 
*END

*D_NET *119 0.000398413
*CONN
*I *466:A3 I *D NOR4_X1
*I *464:ZN O *D OR2_X1
*CAP
1 *466:A3 0.000113482
2 *464:ZN 0.000113482
3 *466:A3 *464:A2 2.39679e-06
4 *466:A3 *466:A4 2.39679e-06
5 *466:A3 *193:14 1.86809e-06
6 *466:A3 *209:27 1.04717e-05
7 *466:A3 *213:18 0
8 *466:A3 *217:21 5.50075e-05
9 *330:A2 *466:A3 3.51003e-05
10 *466:A2 *466:A3 6.42074e-05
*RES
1 *464:ZN *466:A3 26.8571 
*END

*D_NET *120 0.000696713
*CONN
*I *466:A4 I *D NOR4_X1
*I *465:ZN O *D OAI22_X1
*CAP
1 *466:A4 0.000143411
2 *465:ZN 0.000143411
3 *466:A4 *468:A3 1.97225e-05
4 *466:A4 *179:8 0.000315993
5 *466:A4 *207:18 8.89405e-06
6 *466:A4 *208:12 9.57289e-06
7 *466:A4 *217:21 4.48497e-05
8 *466:A1 *466:A4 8.46188e-06
9 *466:A3 *466:A4 2.39679e-06
*RES
1 *465:ZN *466:A4 41.4643 
*END

*D_NET *121 0.000215651
*CONN
*I *468:A3 I *D NAND4_X1
*I *466:ZN O *D NOR4_X1
*CAP
1 *468:A3 5.2335e-05
2 *466:ZN 5.2335e-05
3 *468:A3 *195:12 1.62116e-05
4 *468:A3 *208:12 3.57014e-05
5 *466:A4 *468:A3 1.97225e-05
6 *468:A2 *468:A3 3.93453e-05
*RES
1 *466:ZN *468:A3 28.75 
*END

*D_NET *122 0.000392631
*CONN
*I *468:A4 I *D NAND4_X1
*I *467:ZN O *D NOR4_X1
*CAP
1 *468:A4 0.000105411
2 *467:ZN 0.000105411
3 *468:A4 *148:12 9.38795e-05
4 *468:A4 *171:10 4.16485e-05
5 *468:A4 *179:8 8.29353e-06
6 *468:A4 *195:12 2.04239e-05
7 *468:A4 *217:15 0
8 *466:A1 *468:A4 1.75631e-05
*RES
1 *467:ZN *468:A4 35.5357 
*END

*D_NET *123 0.0020437
*CONN
*I *478:A I *D OAI211_X1
*I *469:ZN O *D OAI21_X1
*CAP
1 *478:A 0.000189506
2 *469:ZN 0.000188211
3 *123:8 0.000377716
4 *478:A *306:A1 2.14404e-05
5 *478:A *306:A2 1.36704e-05
6 *478:A *365:A2 6.85774e-07
7 *478:A *478:C1 7.66479e-05
8 *478:A *221:33 0
9 *478:A *239:13 0
10 *478:A *248:15 0
11 *478:A *248:17 2.04493e-05
12 *123:8 *480:B1 3.75461e-05
13 *123:8 *175:30 0.000246152
14 *123:8 *229:9 6.36312e-05
15 *123:8 *266:9 0.00069444
16 *387:A3 *478:A 0
17 *389:A1 *478:A 0
18 *26:12 *478:A 7.72792e-06
19 *64:14 *478:A 3.2969e-06
20 *110:12 *478:A 0.000102578
*RES
1 *469:ZN *123:8 47.5714 
2 *123:8 *478:A 34.9286 
*END

*D_NET *124 6.71929e-05
*CONN
*I *477:A1 I *D NOR2_X1
*I *470:ZN O *D NOR2_X1
*CAP
1 *477:A1 2.45593e-05
2 *470:ZN 2.45593e-05
3 *477:A1 *130:20 2.39679e-06
4 *477:A1 *131:12 1.13571e-05
5 *477:A1 *254:31 8.43215e-07
6 *477:A1 *254:37 6.48216e-07
7 *408:A4 *477:A1 0
8 *470:A1 *477:A1 4.32144e-07
9 *470:A2 *477:A1 2.39679e-06
10 *85:19 *477:A1 0
*RES
1 *470:ZN *477:A1 12.8571 
*END

*D_NET *125 0.00018035
*CONN
*I *472:C2 I *D AOI211_X1
*I *471:ZN O *D OAI21_X1
*CAP
1 *472:C2 6.78463e-05
2 *471:ZN 6.78463e-05
3 *472:C2 *126:10 4.88118e-06
4 *472:C2 *198:10 3.09028e-05
5 *426:A1 *472:C2 0
6 *472:B *472:C2 7.16188e-07
7 *472:C1 *472:C2 8.15777e-06
*RES
1 *471:ZN *472:C2 28.5714 
*END

*D_NET *126 0.000929685
*CONN
*I *476:A I *D OAI211_X1
*I *472:ZN O *D AOI211_X1
*CAP
1 *476:A 2.343e-05
2 *472:ZN 0.000245214
3 *126:10 0.000268644
4 *476:A *476:B 3.45492e-05
5 *126:10 *181:12 0.000146035
6 *126:10 *198:10 0
7 *472:C1 *126:10 4.7875e-06
8 *472:C2 *126:10 4.88118e-06
9 *476:C2 *476:A 2.83077e-06
10 *114:10 *126:10 0.000199314
*RES
1 *472:ZN *126:10 49.8572 
2 *126:10 *476:A 8.25 
*END

*D_NET *127 0.000327267
*CONN
*I *476:B I *D OAI211_X1
*I *473:ZN O *D OAI21_X1
*CAP
1 *476:B 0.000144532
2 *473:ZN 0.000144532
3 *476:B *417:A2 0
4 *476:B *259:15 3.65322e-06
5 *476:A *476:B 3.45492e-05
*RES
1 *473:ZN *476:B 26.0357 
*END

*D_NET *128 0.000826274
*CONN
*I *475:C2 I *D AOI211_X1
*I *474:ZN O *D OAI21_X1
*CAP
1 *475:C2 0.000146177
2 *474:ZN 0.000146177
3 *475:C2 *183:14 0.0001859
4 *475:C2 *187:23 0.000182469
5 *475:C2 *253:45 5.38238e-05
6 *475:C2 *253:71 1.48912e-05
7 *475:C2 *269:43 1.26998e-05
8 *461:A4 *475:C2 7.91687e-05
9 *475:C1 *475:C2 4.9678e-06
*RES
1 *474:ZN *475:C2 48.25 
*END

*D_NET *129 0.000751691
*CONN
*I *476:C1 I *D OAI211_X1
*I *475:ZN O *D AOI211_X1
*CAP
1 *476:C1 0.000111903
2 *475:ZN 0.000111903
3 *476:C1 *399:A3 3.83453e-06
4 *476:C1 *412:A1 8.22137e-05
5 *476:C1 *475:B 1.21774e-06
6 *476:C1 *181:12 6.32069e-06
7 *476:C1 *198:10 0.000336894
8 *476:C1 *252:39 1.60038e-06
9 *476:C1 *261:39 0
10 *476:C1 *269:43 8.90245e-06
11 *86:8 *476:C1 8.69025e-05
*RES
1 *475:ZN *476:C1 42.6429 
*END

*D_NET *130 0.000736738
*CONN
*I *477:A2 I *D NOR2_X1
*I *476:ZN O *D OAI211_X1
*CAP
1 *477:A2 0
2 *476:ZN 0.00032283
3 *130:20 0.00032283
4 *130:20 *131:12 7.29164e-07
5 *130:20 *184:8 3.07512e-05
6 *130:20 *189:29 0
7 *130:20 *254:31 1.76665e-06
8 *130:20 *254:37 2.26183e-05
9 *130:20 *255:37 7.56974e-06
10 *130:20 *265:43 5.56778e-06
11 *409:A1 *130:20 0
12 *423:A2 *130:20 0
13 *423:A3 *130:20 0
14 *470:A2 *130:20 1.96775e-05
15 *477:A1 *130:20 2.39679e-06
16 *22:39 *130:20 0
*RES
1 *476:ZN *130:20 49.3214 
2 *130:20 *477:A2 5 
*END

*D_NET *131 0.00102324
*CONN
*I *478:B I *D OAI211_X1
*I *477:ZN O *D NOR2_X1
*CAP
1 *478:B 6.18666e-05
2 *477:ZN 0.00029156
3 *131:12 0.000353427
4 *478:B *485:A1 1.88334e-06
5 *478:B *179:8 0
6 *478:B *249:17 3.27142e-05
7 *131:12 *149:12 2.76181e-05
8 *131:12 *149:14 1.94827e-05
9 *131:12 *185:40 2.42656e-05
10 *131:12 *220:21 0
11 *131:12 *254:31 3.48634e-05
12 *131:12 *255:23 0
13 *334:A4 *131:12 7.19036e-06
14 *344:A2 *131:12 1.91168e-05
15 *347:A2 *131:12 7.19036e-06
16 *477:A1 *131:12 1.13571e-05
17 *478:C2 *478:B 6.61158e-05
18 *6:27 *131:12 1.68643e-06
19 *7:23 *131:12 6.11298e-06
20 *44:25 *131:12 5.4877e-05
21 *52:14 *131:12 1.18232e-06
22 *70:43 *478:B 0
23 *130:20 *131:12 7.29164e-07
*RES
1 *477:ZN *131:12 45.7857 
2 *131:12 *478:B 18.3929 
*END

*D_NET *132 0.00022395
*CONN
*I *485:A1 I *D OR3_X1
*I *478:ZN O *D OAI211_X1
*CAP
1 *485:A1 8.86278e-05
2 *478:ZN 8.86278e-05
3 *485:A1 grant[8] 8.43215e-07
4 *485:A1 *483:A 1.32323e-05
5 *485:A1 *485:A2 2.75346e-06
6 *485:A1 *179:8 0
7 *485:A1 *211:8 1.89851e-06
8 *485:A1 *249:17 2.60834e-05
9 *478:B *485:A1 1.88334e-06
*RES
1 *478:ZN *485:A1 30.3214 
*END

*D_NET *133 0.000156756
*CONN
*I *481:A1 I *D AND2_X1
*I *479:ZN O *D OAI21_X1
*CAP
1 *481:A1 3.10678e-05
2 *479:ZN 3.10678e-05
3 *481:A1 *370:A 1.76665e-06
4 *481:A1 *148:24 4.21607e-06
5 *481:A1 *150:37 1.25215e-05
6 *481:A1 *201:25 2.0679e-05
7 *481:A1 *234:17 5.54369e-05
*RES
1 *479:ZN *481:A1 25.1429 
*END

*D_NET *134 0.000777202
*CONN
*I *481:A2 I *D AND2_X1
*I *480:ZN O *D OAI21_X1
*CAP
1 *481:A2 0.000167747
2 *480:ZN 0.000167747
3 *481:A2 grant[52] 8.90513e-06
4 *481:A2 *377:A1 4.73284e-06
5 *481:A2 *480:B2 2.52965e-06
6 *481:A2 *150:35 1.29302e-05
7 *481:A2 *162:12 2.23415e-06
8 *481:A2 *189:39 6.42074e-05
9 *481:A2 *193:30 0
10 *481:A2 *217:9 3.94286e-05
11 *481:A2 *234:17 0.000263064
12 *481:A2 *235:50 4.0713e-05
13 *377:A2 *481:A2 2.96179e-06
*RES
1 *480:ZN *481:A2 44.6786 
*END

*D_NET *135 0.00154634
*CONN
*I *483:A I *D OAI221_X1
*I *481:ZN O *D AND2_X1
*CAP
1 *483:A 0.000231562
2 *481:ZN 0.000145977
3 *135:14 0.000377539
4 *483:A grant[8] 4.13686e-05
5 *483:A *483:C2 2.75346e-06
6 *483:A *485:A2 1.21325e-05
7 *483:A *148:22 0
8 *483:A *263:35 5.15352e-05
9 *135:14 grant[8] 6.17613e-05
10 *135:14 index[5] 4.93875e-05
11 *135:14 *217:9 0.000142445
12 *135:14 *226:9 0.000142445
13 *372:A1 *135:14 1.3429e-05
14 *483:B2 *483:A 8.43215e-07
15 *485:A1 *483:A 1.32323e-05
16 *69:34 *483:A 0.000259925
*RES
1 *481:ZN *135:14 38.3929 
2 *135:14 *483:A 39.9286 
*END

*D_NET *136 0.00044341
*CONN
*I *492:C1 I *D OAI211_X1
*I *483:C2 I *D OAI221_X1
*I *482:ZN O *D INV_X1
*CAP
1 *492:C1 2.77964e-05
2 *483:C2 3.93711e-05
3 *482:ZN 0
4 *136:6 6.71676e-05
5 *483:C2 *489:A2 2.76156e-05
6 *483:C2 *183:31 6.73899e-05
7 *483:C2 *222:9 6.68482e-05
8 *483:C2 *263:35 3.79186e-05
9 *492:C1 *183:31 3.68589e-05
10 *492:C1 *193:14 0
11 *492:C1 *209:16 8.43215e-07
12 *492:C1 *213:18 1.40196e-06
13 *492:C1 *222:9 4.16464e-05
14 *492:C1 *266:27 2.2287e-05
15 *483:A *483:C2 2.75346e-06
16 *483:B2 *483:C2 4.32144e-07
17 *492:A *492:C1 2.39679e-06
18 *6:8 *483:C2 6.82202e-07
*RES
1 *482:ZN *136:6 10 
2 *136:6 *483:C2 17.3929 
3 *136:6 *492:C1 14.5357 
*END

*D_NET *137 0.000457863
*CONN
*I *485:A2 I *D OR3_X1
*I *483:ZN O *D OAI221_X1
*CAP
1 *485:A2 0.000138724
2 *483:ZN 0.000138724
3 *485:A2 *140:12 4.60082e-05
4 *485:A2 *211:6 7.89897e-06
5 *485:A2 *211:8 6.0887e-06
6 *485:A2 *263:35 5.45362e-05
7 *482:A *485:A2 2.87403e-05
8 *483:A *485:A2 1.21325e-05
9 *483:C1 *485:A2 7.72792e-06
10 *485:A1 *485:A2 2.75346e-06
11 *487:B1 *485:A2 1.45291e-05
*RES
1 *483:ZN *485:A2 30.2143 
*END

*D_NET *138 0.00105895
*CONN
*I *485:A3 I *D OR3_X1
*I *484:ZN O *D OAI22_X1
*CAP
1 *485:A3 0.00011328
2 *484:ZN 0.00011328
3 *485:A3 *208:12 0.000455298
4 *485:A3 *249:17 1.46963e-05
5 *484:B2 *485:A3 1.04526e-05
6 *487:B2 *485:A3 0.000351937
*RES
1 *484:ZN *485:A3 45.4286 
*END

*D_NET *139 0.000291975
*CONN
*I *489:A1 I *D OR3_X1
*I *486:ZN O *D OAI21_X1
*CAP
1 *489:A1 9.78029e-05
2 *486:ZN 9.78029e-05
3 *489:A1 *214:8 1.41532e-05
4 *489:A1 *251:31 0
5 *488:A1 *489:A1 0
6 *83:28 *489:A1 8.22158e-05
*RES
1 *486:ZN *489:A1 31.4643 
*END

*D_NET *140 0.00104511
*CONN
*I *489:A2 I *D OR3_X1
*I *487:ZN O *D OAI22_X1
*CAP
1 *489:A2 9.63516e-05
2 *487:ZN 0.000139718
3 *140:12 0.000236069
4 *489:A2 *286:A1 2.90404e-05
5 *489:A2 *489:A3 2.75346e-06
6 *489:A2 *263:35 5.49947e-05
7 *140:12 *464:A2 7.90512e-05
8 *140:12 *266:27 3.61652e-05
9 *482:A *140:12 2.39467e-05
10 *483:C1 *140:12 4.16464e-05
11 *483:C2 *489:A2 2.76156e-05
12 *485:A2 *140:12 4.60082e-05
13 *487:B1 *140:12 7.50404e-05
14 *488:A1 *489:A2 2.16072e-07
15 *488:A2 *489:A2 2.33081e-05
16 *492:C2 *140:12 0.000119339
17 *6:8 *489:A2 7.31018e-06
18 *31:8 *140:12 6.54111e-06
*RES
1 *487:ZN *140:12 39.0714 
2 *140:12 *489:A2 19.75 
*END

*D_NET *141 7.57804e-05
*CONN
*I *489:A3 I *D OR3_X1
*I *488:ZN O *D NAND4_X1
*CAP
1 *489:A3 2.76294e-05
2 *488:ZN 2.76294e-05
3 *489:A3 *263:35 1.37673e-05
4 *488:A1 *489:A3 4.0008e-06
5 *489:A2 *489:A3 2.75346e-06
*RES
1 *488:ZN *489:A3 13.5357 
*END

*D_NET *142 0.000294807
*CONN
*I *491:A I *D AOI221_X1
*I *490:ZN O *D AOI21_X1
*CAP
1 *491:A 9.75104e-05
2 *490:ZN 9.75104e-05
3 *491:A *254:31 6.03317e-05
4 *491:A *255:23 3.29979e-05
5 *491:B1 *491:A 3.22834e-06
6 *491:C2 *491:A 3.22834e-06
*RES
1 *490:ZN *491:A 24.1786 
*END

*D_NET *143 0.00062206
*CONN
*I *492:B I *D OAI211_X1
*I *491:ZN O *D AOI221_X1
*CAP
1 *492:B 0.000235816
2 *491:ZN 0.000235816
3 *492:B *286:A2 1.73809e-06
4 *492:B *193:14 0
5 *492:B *196:14 3.43575e-05
6 *492:B *213:18 6.32309e-05
7 *492:B *251:27 2.38987e-06
8 *347:A1 *492:B 3.60121e-05
9 *492:A *492:B 1.26998e-05
*RES
1 *491:ZN *492:B 47.9643 
*END

*D_NET *144 0.000184379
*CONN
*I *494:A2 I *D NAND2_X1
*I *493:ZN O *D NAND2_X1
*CAP
1 *494:A2 9.0813e-05
2 *493:ZN 9.0813e-05
3 *494:A1 *494:A2 2.75346e-06
4 *23:8 *494:A2 0
*RES
1 *493:ZN *494:A2 19.75 
*END

*D_NET *145 0.000309445
*CONN
*I *496:A1 I *D AND4_X1
*I *495:ZN O *D INV_X1
*CAP
1 *496:A1 6.06391e-05
2 *495:ZN 6.06391e-05
3 *496:A1 *283:A2 1.76665e-06
4 *496:A1 *283:A3 0
5 *496:A1 *222:9 7.78359e-05
6 *496:A1 *244:19 2.63178e-05
7 *496:A1 *250:23 1.25215e-05
8 *496:A1 *278:33 2.7335e-05
9 *336:A2 *496:A1 1.19839e-05
10 *3:12 *496:A1 3.04063e-05
*RES
1 *495:ZN *496:A1 29.75 
*END

*D_NET *146 0.00337579
*CONN
*P grant[0] O
*I *314:A2 I *D NAND2_X2
*I *313:ZN O *D NOR4_X4
*CAP
1 grant[0] 0.000280119
2 *314:A2 9.38974e-05
3 *313:ZN 9.38974e-05
4 *146:24 0.000751707
5 *146:22 0.000471587
6 grant[0] *219:11 1.448e-05
7 grant[0] *231:9 5.59346e-05
8 grant[0] *274:11 5.41015e-05
9 grant[0] *275:11 0.000193097
10 grant[0] *279:5 2.05033e-06
11 *314:A2 *313:A3 7.19036e-06
12 *314:A2 *200:31 0
13 *314:A2 *204:18 5.34051e-05
14 *314:A2 *280:8 0.000107643
15 *146:24 grant[62] 2.38392e-05
16 *146:24 grant[6] 0.000121238
17 *146:24 grant[7] 0.000126208
18 *146:24 *204:18 0.000710455
19 *146:24 *252:5 0.000203329
20 *314:A1 *314:A2 1.16099e-05
*RES
1 *313:ZN *314:A2 25.5357 
2 *313:ZN *146:22 5 
3 *146:22 *146:24 85.25 
4 *146:24 grant[0] 41.3214 
*END

*D_NET *147 0.00431235
*CONN
*P grant[10] O
*I *338:ZN O *D AND3_X1
*CAP
1 grant[10] 3.66782e-06
2 *338:ZN 5.61152e-06
3 *147:22 0.00113838
4 *147:16 0.00195642
5 *147:12 0.000827318
6 grant[10] *233:5 2.60945e-06
7 grant[10] *277:7 2.05033e-06
8 *147:12 *196:18 1.53158e-05
9 *147:12 *279:17 4.381e-07
10 *147:16 *219:19 4.2721e-05
11 *147:22 *261:23 3.48117e-05
12 *147:22 *273:23 0.000278751
13 *147:22 *276:9 4.24465e-06
*RES
1 *338:ZN *147:12 18.8214 
2 *147:12 *147:16 38.49 
3 *147:16 *147:22 49.0186 
4 *147:22 grant[10] 5.53571 
*END

*D_NET *148 0.00325439
*CONN
*P grant[11] O
*I *340:ZN O *D INV_X1
*CAP
1 grant[11] 2.22786e-05
2 *340:ZN 0.000236212
3 *148:24 0.000419592
4 *148:22 0.000616797
5 *148:12 0.000455695
6 grant[11] grant[13] 2.05033e-06
7 grant[11] grant[14] 9.57492e-07
8 grant[11] grant[36] 5.37017e-06
9 *148:12 *195:12 0.000239528
10 *148:12 *243:9 3.20856e-06
11 *148:22 *370:A 4.12459e-06
12 *148:22 *374:A1 3.46596e-06
13 *148:22 *479:B2 2.39679e-06
14 *148:22 *223:9 0.000382683
15 *148:22 *239:9 1.32167e-05
16 *148:24 grant[12] 0.000148487
17 *148:24 grant[14] 0
18 *148:24 grant[36] 2.39679e-06
19 *148:24 *374:A1 2.39679e-06
20 *148:24 *455:A3 3.56012e-06
21 *148:24 *479:B2 1.87439e-05
22 *148:24 *150:37 1.22285e-05
23 *148:24 *230:15 3.19164e-07
24 *148:24 *240:19 9.45928e-05
25 *330:A2 *148:12 0
26 *373:A3 *148:22 1.37423e-05
27 *389:A1 *148:22 1.83411e-06
28 *466:A1 *148:12 0
29 *466:A2 *148:12 0
30 *468:A2 *148:12 1.53827e-05
31 *468:A4 *148:12 9.38795e-05
32 *481:A1 *148:24 4.21607e-06
33 *483:A *148:22 0
34 *3:18 *148:12 0
35 *56:14 *148:22 0.000102048
36 *69:34 *148:22 0
37 *110:12 *148:22 0.000332986
*RES
1 *340:ZN *148:12 46.1429 
2 *148:12 *148:22 48.2857 
3 *148:22 *148:24 50.25 
4 *148:24 grant[11] 2.64286 
*END

*D_NET *149 0.00284275
*CONN
*P grant[12] O
*I *334:ZN O *D AND4_X1
*CAP
1 grant[12] 0.000208959
2 *334:ZN 3.40871e-05
3 *149:20 0.000230496
4 *149:14 0.000349305
5 *149:12 0.000361855
6 grant[12] grant[36] 8.39748e-06
7 grant[12] *150:37 0.000446135
8 grant[12] *240:19 9.51279e-05
9 grant[12] *251:11 1.3917e-06
10 *149:12 *193:20 1.58752e-05
11 *149:12 *243:9 4.23938e-05
12 *149:12 *248:17 0
13 *149:14 grant[27] 9.01395e-05
14 *149:14 grant[30] 3.15956e-05
15 *149:14 *166:10 9.70757e-05
16 *149:14 *175:36 1.89312e-05
17 *149:14 *248:15 0.000194581
18 *149:14 *248:17 0.000102787
19 *149:20 *159:23 9.07104e-05
20 *149:20 *164:12 9.12542e-05
21 *478:C2 *149:14 0.000102048
22 *64:14 *149:14 3.40167e-05
23 *131:12 *149:12 2.76181e-05
24 *131:12 *149:14 1.94827e-05
25 *148:24 grant[12] 0.000148487
*RES
1 *334:ZN *149:12 20.0357 
2 *149:12 *149:14 51.25 
3 *149:14 *149:20 15 
4 *149:20 grant[12] 41.5357 
*END

*D_NET *150 0.00371194
*CONN
*P grant[13] O
*I *462:A1 I *D NOR2_X1
*I *345:ZN O *D NOR4_X1
*CAP
1 grant[13] 4.99079e-05
2 *462:A1 6.48317e-05
3 *345:ZN 2.6502e-05
4 *150:37 0.000282545
5 *150:35 0.000472519
6 *150:27 0.000450585
7 *150:6 0.000302036
8 grant[13] grant[14] 2.05033e-06
9 grant[13] grant[36] 2.89018e-05
10 grant[13] *240:9 1.38574e-05
11 *462:A1 *462:A2 3.65322e-06
12 *462:A1 *253:19 1.39839e-06
13 *462:A1 *278:17 8.12811e-06
14 *150:6 *245:19 1.7898e-05
15 *150:27 *171:10 0
16 *150:27 *220:21 1.27236e-05
17 *150:27 *236:9 1.54409e-06
18 *150:27 *237:9 6.96893e-06
19 *150:27 *245:19 4.97465e-05
20 *150:35 *480:B1 4.21607e-06
21 *150:35 *480:B2 1.28122e-06
22 *150:35 *189:39 4.41389e-05
23 *150:35 *193:30 1.91726e-05
24 *150:35 *217:9 0.000212154
25 *150:35 *220:13 0
26 *150:35 *226:9 0.000212697
27 *150:35 *235:13 1.56316e-05
28 *150:35 *235:19 3.33034e-05
29 *150:35 *235:50 2.07793e-05
30 *150:35 *236:13 2.2287e-05
31 *150:37 *161:19 3.26917e-05
32 *150:37 *240:25 0.000410956
33 *150:37 *251:11 3.38384e-05
34 grant[11] grant[13] 2.05033e-06
35 grant[12] *150:37 0.000446135
36 *308:A1 *150:27 1.37329e-05
37 *308:A2 *150:27 1.99813e-05
38 *345:A2 *150:6 4.41389e-05
39 *345:A2 *150:27 5.98653e-05
40 *352:A2 *150:27 7.53907e-05
41 *366:A1 *150:35 2.16072e-07
42 *366:A2 *150:27 9.03468e-07
43 *367:A3 *150:27 1.84611e-05
44 *367:A3 *150:35 4.77786e-06
45 *463:A1 *462:A1 1.30469e-05
46 *481:A1 *150:37 1.25215e-05
47 *481:A2 *150:35 1.29302e-05
48 *26:26 *150:27 1.38389e-05
49 *28:8 *150:27 7.93549e-05
50 *30:8 *150:27 2.34212e-05
51 *64:14 *150:35 0
52 *148:24 *150:37 1.22285e-05
*RES
1 *345:ZN *150:6 9.25 
2 *150:6 *462:A1 22.1071 
3 *150:6 *150:27 40.6786 
4 *150:27 *150:35 44.5357 
5 *150:35 *150:37 48.25 
6 *150:37 grant[13] 15.5357 
*END

*D_NET *151 0.0025191
*CONN
*P grant[14] O
*I *348:ZN O *D NOR3_X1
*CAP
1 grant[14] 0.000351764
2 *348:ZN 0.000566391
3 *151:20 0.000918155
4 grant[14] *160:6 1.57413e-05
5 grant[14] *230:15 3.56012e-06
6 grant[14] *234:9 0.000496208
7 *151:20 *286:A2 8.61274e-06
8 *151:20 *218:13 1.17711e-05
9 *151:20 *235:9 9.36016e-06
10 *151:20 *240:31 0
11 *151:20 *243:9 1.10597e-05
12 *151:20 *251:27 0
13 *151:20 *263:27 6.76724e-05
14 *151:20 *271:13 8.84643e-06
15 grant[11] grant[14] 9.57492e-07
16 grant[13] grant[14] 2.05033e-06
17 *348:A2 *151:20 7.2187e-06
18 *479:A grant[14] 3.84511e-05
19 *69:34 *151:20 1.28122e-06
20 *148:24 grant[14] 0
*RES
1 *348:ZN *151:20 46.4086 
2 *151:20 grant[14] 50.0357 
*END

*D_NET *152 0.00475029
*CONN
*P grant[15] O
*I *464:A2 I *D OR2_X1
*I *349:ZN O *D AND2_X1
*CAP
1 grant[15] 0.000718439
2 *464:A2 6.48216e-05
3 *349:ZN 7.63657e-06
4 *152:14 0.000718439
5 *152:12 0.000430661
6 *152:10 0.000503119
7 grant[15] grant[24] 0.000101905
8 grant[15] grant[35] 0.000190245
9 grant[15] *256:5 0
10 grant[15] *266:5 0.000139174
11 grant[15] *276:7 1.23514e-05
12 *464:A2 *193:14 1.28122e-06
13 *464:A2 *209:16 1.74934e-05
14 *464:A2 *209:27 2.39679e-06
15 *464:A2 *244:19 0.000179848
16 *464:A2 *244:21 2.91785e-06
17 *152:10 *244:19 1.88334e-06
18 *152:10 *244:21 1.08199e-05
19 *152:12 *285:A 1.57304e-05
20 *152:12 *396:A1 2.21798e-05
21 *152:12 *174:10 1.21754e-05
22 *152:12 *244:21 0.000350264
23 *152:12 *244:23 3.02296e-05
24 *152:12 *255:9 0.000168616
25 *287:A3 *152:12 4.46165e-06
26 *311:A1 *152:12 0.000424931
27 *396:A3 *152:12 0.000154486
28 *398:A1 *152:12 5.46432e-05
29 *398:A2 *152:12 4.98557e-05
30 *466:A3 *464:A2 2.39679e-06
31 *483:B1 *464:A2 2.72417e-06
32 *483:C1 *464:A2 2.6065e-05
33 *491:B1 *152:12 6.6205e-05
34 *6:12 *464:A2 4.43868e-06
35 *6:12 *152:12 9.68684e-05
36 *7:23 *152:12 4.74229e-05
37 *31:8 *464:A2 1.20751e-06
38 *69:34 *464:A2 1.08199e-05
39 *69:34 *152:12 2.20874e-05
40 *140:12 *464:A2 7.90512e-05
*RES
1 *349:ZN *152:10 11.3214 
2 *152:10 *152:12 77.9643 
3 *152:12 *152:14 5 
4 *152:14 grant[15] 98.0358 
5 *152:10 *464:A2 22.5 
*END

*D_NET *153 0.00237173
*CONN
*P grant[16] O
*I *343:ZN O *D AND3_X1
*CAP
1 grant[16] 0.000360104
2 *343:ZN 0
3 *153:10 0.000360104
4 *153:8 0.000440458
5 *153:6 0.000440458
6 grant[16] grant[38] 0.00031604
7 grant[16] *262:5 0.000315481
8 *153:8 *210:10 0.000106123
9 *153:8 *236:9 0
10 *310:A2 *153:8 8.29353e-06
11 *25:12 *153:8 2.46708e-05
*RES
1 *343:ZN *153:6 10 
2 *153:6 *153:8 46.3929 
3 *153:8 *153:10 5 
4 *153:10 grant[16] 65.0357 
*END

*D_NET *154 0.00206501
*CONN
*P grant[17] O
*I *462:A2 I *D NOR2_X1
*I *358:ZN O *D NOR4_X1
*CAP
1 grant[17] 0.00044401
2 *462:A2 0.000115975
3 *358:ZN 0
4 *154:10 0.000526843
5 *154:6 0.000198808
6 grant[17] grant[19] 0.000238685
7 grant[17] grant[29] 5.90636e-05
8 grant[17] grant[33] 2.05033e-06
9 grant[17] *172:26 5.03184e-05
10 grant[17] *247:13 0.000208264
11 *462:A2 *236:9 2.19614e-05
12 *462:A2 *253:19 0
13 *462:A2 *257:19 4.5028e-05
14 *462:A2 *257:23 3.81282e-05
15 *154:10 *236:9 7.2012e-05
16 *342:A1 *462:A2 1.70915e-05
17 *342:A1 *154:10 1.52083e-06
18 *342:A3 *154:10 4.60005e-06
19 *462:A1 *462:A2 3.65322e-06
20 *43:85 *462:A2 3.7666e-06
21 *48:12 *462:A2 0
22 *49:14 *462:A2 1.32323e-05
*RES
1 *358:ZN *154:6 10 
2 *154:6 *154:10 15.4286 
3 *154:10 grant[17] 70.0357 
4 *154:6 *462:A2 25.8929 
*END

*D_NET *155 0.00271725
*CONN
*P grant[18] O
*I *359:ZN O *D AND3_X1
*CAP
1 grant[18] 5.88949e-05
2 *359:ZN 0.000238707
3 *155:10 0.000589276
4 *155:8 0.000530381
5 *155:6 0.000238707
6 grant[18] grant[8] 1.3917e-06
7 grant[18] index[5] 5.09536e-05
8 grant[18] *263:17 0.000115731
9 *155:6 *257:19 3.23723e-07
10 *155:6 *261:9 3.28194e-05
11 *155:6 *265:19 0.000479006
12 *155:6 *269:13 0.000144737
13 *155:10 *240:19 4.16485e-05
14 *155:10 *241:11 0.000194676
*RES
1 *359:ZN *155:6 49.25 
2 *155:6 *155:8 5 
3 *155:8 *155:10 51.1429 
4 *155:10 grant[18] 16.0357 
*END

*D_NET *156 0.00284829
*CONN
*P grant[19] O
*I *455:A1 I *D OR3_X1
*I *360:ZN O *D AND2_X1
*CAP
1 grant[19] 0.000248207
2 *455:A1 0.000234033
3 *360:ZN 0
4 *156:25 0.000446526
5 *156:4 0.000432351
6 grant[19] grant[47] 1.3917e-06
7 grant[19] *172:26 0.00054385
8 *455:A1 *368:A2 1.39344e-06
9 *455:A1 *377:A1 3.65556e-06
10 *455:A1 *163:8 2.83803e-05
11 *455:A1 *179:24 2.51306e-06
12 *455:A1 *221:27 4.24402e-05
13 *455:A1 *226:9 3.38055e-05
14 *455:A1 *233:9 0.00019338
15 *455:A1 *233:22 6.55056e-05
16 *455:A1 *234:27 7.62765e-06
17 *455:A1 *235:9 5.55323e-05
18 *455:A1 *245:5 3.51654e-06
19 *455:A1 *251:27 6.94703e-06
20 *455:A1 *253:5 1.87392e-05
21 *156:25 *226:9 1.48912e-05
22 *156:25 *232:9 7.88407e-06
23 *156:25 *233:9 3.52749e-05
24 grant[17] grant[19] 0.000238685
25 *368:A1 *455:A1 7.1699e-06
26 *377:A2 *455:A1 5.37387e-05
27 *380:A2 *455:A1 6.29198e-05
28 *27:14 *455:A1 4.18746e-06
29 *66:43 *455:A1 5.37467e-05
*RES
1 *360:ZN *156:4 5 
2 *156:4 *455:A1 49.6429 
3 *156:4 *156:25 29.9286 
4 *156:25 grant[19] 50.0357 
*END

*D_NET *157 0.00475348
*CONN
*P grant[1] O
*I *317:ZN O *D NOR2_X1
*CAP
1 grant[1] 1.14691e-05
2 *317:ZN 0.000111118
3 *157:18 0.00032162
4 *157:16 0.000503306
5 *157:10 0.00085183
6 *157:8 0.000769794
7 grant[1] *233:5 1.3917e-06
8 grant[1] *278:5 2.60945e-06
9 *157:8 *168:6 9.17115e-05
10 *157:8 *200:41 9.17115e-05
11 *157:10 *325:A1 2.57809e-05
12 *157:10 *467:A3 1.02041e-05
13 *157:10 *163:8 6.14268e-05
14 *157:10 *166:10 0
15 *157:10 *175:34 1.89787e-05
16 *157:10 *201:10 0
17 *157:10 *229:9 0.000191711
18 *157:10 *235:19 1.85361e-05
19 *157:10 *270:15 0
20 *157:10 *271:25 5.41015e-05
21 *157:16 *305:A1 1.04526e-05
22 *157:16 *362:A1 5.41015e-05
23 *157:16 *167:12 0.000328611
24 *157:16 *175:34 2.00731e-05
25 *157:16 *179:24 7.63742e-06
26 *157:16 *221:27 1.39047e-05
27 *157:16 *225:17 0.000218288
28 *157:16 *225:25 6.03129e-06
29 *157:16 *229:9 2.26011e-05
30 *157:16 *232:9 8.78935e-06
31 *157:16 *234:37 7.88152e-05
32 *157:16 *235:19 6.24941e-06
33 *157:18 *305:A2 1.25215e-05
34 *157:18 *233:5 0.000564991
35 *157:18 *265:19 0
36 *157:18 *278:5 0.000138103
37 *157:18 *278:15 4.65673e-05
38 *326:A1 *157:10 4.177e-06
39 *359:A3 *157:16 2.40215e-05
40 *480:A *157:10 3.48113e-05
41 *480:A *157:16 1.54344e-05
*RES
1 *317:ZN *157:8 29.25 
2 *157:8 *157:10 71.1607 
3 *157:10 *157:16 38.2322 
4 *157:16 *157:18 55.25 
5 *157:18 grant[1] 1.46429 
*END

*D_NET *158 0.00132786
*CONN
*P grant[20] O
*I *354:ZN O *D AND4_X1
*CAP
1 grant[20] 0.000291206
2 *354:ZN 5.12684e-05
3 *158:10 0.000342474
4 grant[20] grant[22] 1.59582e-06
5 grant[20] grant[8] 0.000170585
6 grant[20] *211:8 9.37037e-05
7 grant[20] *231:13 0.000114613
8 grant[20] *263:11 2.05033e-06
9 *158:10 *201:25 0.000167764
10 *158:10 *226:9 0
11 *158:10 *230:9 6.70982e-05
12 *158:10 *230:15 1.72405e-05
13 *54:10 *158:10 8.2594e-06
*RES
1 *354:ZN *158:10 24.0714 
2 *158:10 grant[20] 45.0357 
*END

*D_NET *159 0.00254973
*CONN
*P grant[21] O
*I *467:A2 I *D NOR4_X1
*I *369:ZN O *D AND3_X1
*CAP
1 grant[21] 0.000222418
2 *467:A2 4.0426e-05
3 *369:ZN 0
4 *159:23 0.000546717
5 *159:19 0.000416084
6 *159:4 0.000132211
7 grant[21] grant[52] 0.000194843
8 grant[21] grant[5] 9.95691e-05
9 grant[21] *162:12 0.00021965
10 *467:A2 *467:A1 4.12459e-06
11 *467:A2 *467:A3 9.3882e-05
12 *467:A2 *166:14 8.4114e-05
13 *159:19 grant[26] 4.9678e-06
14 *159:19 *166:14 7.22854e-05
15 *159:19 *217:15 0
16 *159:19 *228:13 9.68176e-06
17 *159:23 *163:18 1.26877e-05
18 *159:23 *164:12 0.00019146
19 *159:23 *185:50 1.03757e-05
20 *159:23 *201:25 0
21 *159:23 *211:12 0
22 *159:23 *228:9 4.18985e-05
23 *159:23 *263:17 4.7181e-06
24 *159:23 *277:9 0
25 *354:A4 *159:19 5.69059e-05
26 *149:20 *159:23 9.07104e-05
*RES
1 *369:ZN *159:4 5 
2 *159:4 *467:A2 13.75 
3 *159:4 *159:19 18.9286 
4 *159:19 *159:23 41.8929 
5 *159:23 grant[21] 41.0357 
*END

*D_NET *160 0.00160109
*CONN
*P grant[22] O
*I *373:ZN O *D NOR3_X1
*CAP
1 grant[22] 9.07588e-05
2 *373:ZN 0
3 *160:6 0.000351672
4 *160:4 0.000260913
5 grant[22] *230:5 1.44187e-05
6 grant[22] *231:13 2.2287e-05
7 grant[22] *263:11 2.05033e-06
8 grant[22] *276:13 0.000154898
9 *160:6 index[5] 0.000220259
10 *160:6 *373:A1 2.39679e-06
11 *160:6 *234:9 0.000463196
12 grant[14] *160:6 1.57413e-05
13 grant[20] grant[22] 1.59582e-06
14 *479:A *160:6 9.01846e-07
*RES
1 *373:ZN *160:4 5 
2 *160:4 *160:6 47.75 
3 *160:6 grant[22] 21.9286 
*END

*D_NET *161 0.00181576
*CONN
*P grant[23] O
*I *455:A2 I *D OR3_X1
*I *374:ZN O *D AND2_X1
*CAP
1 grant[23] 2.79401e-05
2 *455:A2 0
3 *374:ZN 3.93695e-05
4 *161:19 0.000267052
5 *161:12 0.000278482
6 grant[23] grant[27] 1.1605e-05
7 grant[23] grant[36] 7.94852e-06
8 grant[23] *248:11 2.49296e-05
9 grant[23] *276:13 4.24402e-05
10 *161:12 *374:A1 2.72171e-06
11 *161:12 *455:A3 7.16188e-07
12 *161:12 *163:8 9.19675e-05
13 *161:12 *235:9 5.90597e-06
14 *161:12 *240:25 1.16229e-06
15 *161:12 *248:15 3.58094e-06
16 *161:19 *455:A3 2.61469e-06
17 *161:19 *240:25 0.000435462
18 *161:19 *248:11 3.56012e-06
19 *161:19 *248:15 1.1519e-06
20 *161:19 *251:11 1.19839e-05
21 *161:19 *251:13 0.000512024
22 *56:14 *161:12 0
23 *56:18 *161:12 1.04526e-05
24 *150:37 *161:19 3.26917e-05
*RES
1 *374:ZN *161:12 21.25 
2 *161:12 *455:A2 5 
3 *161:12 *161:19 49.75 
4 *161:19 grant[23] 14.8214 
*END

*D_NET *162 0.00253625
*CONN
*P grant[24] O
*I *368:ZN O *D AND4_X1
*CAP
1 grant[24] 0.00011634
2 *368:ZN 0.000159518
3 *162:14 0.000737651
4 *162:12 0.00078083
5 grant[24] grant[35] 0.000102464
6 *162:12 grant[3] 0
7 *162:12 grant[52] 3.0672e-05
8 *162:12 grant[5] 0.000234317
9 *162:12 *164:12 2.40703e-05
10 *162:12 *193:30 1.80259e-05
11 *162:12 *234:17 3.19164e-07
12 *162:14 *173:14 0
13 grant[15] grant[24] 0.000101905
14 grant[21] *162:12 0.00021965
15 *379:A3 *162:12 8.24917e-06
16 *481:A2 *162:12 2.23415e-06
*RES
1 *368:ZN *162:12 40.4286 
2 *162:12 *162:14 55.2143 
3 *162:14 grant[24] 26.0357 
*END

*D_NET *163 0.00233026
*CONN
*P grant[25] O
*I *467:A3 I *D NOR4_X1
*I *377:ZN O *D AND3_X1
*CAP
1 grant[25] 0.000245039
2 *467:A3 8.69098e-05
3 *377:ZN 0.000233753
4 *163:18 0.000418169
5 *163:8 0.000493793
6 grant[25] grant[26] 0.000190257
7 grant[25] *228:13 1.25215e-05
8 grant[25] *230:5 0.000195599
9 *467:A3 *369:A1 8.81157e-06
10 *467:A3 *217:15 0
11 *467:A3 *235:9 5.94167e-07
12 *163:8 *369:A1 5.83235e-06
13 *163:8 *175:34 4.35107e-05
14 *163:8 *189:37 1.88334e-06
15 *163:8 *235:9 2.68214e-07
16 *163:18 *164:12 1.32625e-05
17 *163:18 *263:27 0
18 *373:A2 *163:8 2.88568e-05
19 *380:A2 *163:8 3.21287e-06
20 *455:A1 *163:8 2.83803e-05
21 *467:A2 *467:A3 9.3882e-05
22 *56:18 *163:8 4.92317e-06
23 *56:35 *467:A3 6.03486e-06
24 *56:35 *163:8 3.84817e-05
25 *157:10 *467:A3 1.02041e-05
26 *157:10 *163:8 6.14268e-05
27 *159:23 *163:18 1.26877e-05
28 *161:12 *163:8 9.19675e-05
*RES
1 *377:ZN *163:8 40.2857 
2 *163:8 *163:18 21 
3 *163:18 grant[25] 41.5357 
4 *163:8 *467:A3 22.2143 
*END

*D_NET *164 0.00189591
*CONN
*P grant[26] O
*I *379:ZN O *D AND3_X1
*CAP
1 grant[26] 0.000279673
2 *379:ZN 0.000289788
3 *164:12 0.000569461
4 grant[26] grant[28] 5.04493e-06
5 grant[26] *166:14 8.97215e-05
6 grant[26] *228:13 1.74934e-05
7 *164:12 grant[3] 0
8 *164:12 grant[5] 1.87418e-05
9 *164:12 *185:50 1.09458e-05
10 *164:12 *201:25 9.47184e-05
11 *164:12 *263:17 5.05238e-06
12 grant[25] grant[26] 0.000190257
13 *149:20 *164:12 9.12542e-05
14 *159:19 grant[26] 4.9678e-06
15 *159:23 *164:12 0.00019146
16 *162:12 *164:12 2.40703e-05
17 *163:18 *164:12 1.32625e-05
*RES
1 *379:ZN *164:12 49.7143 
2 *164:12 grant[26] 47.0357 
*END

*D_NET *165 0.00183926
*CONN
*P grant[27] O
*I *455:A3 I *D OR3_X1
*I *380:ZN O *D AND2_X1
*CAP
1 grant[27] 0.000282924
2 *455:A3 5.77416e-05
3 *380:ZN 1.7488e-05
4 *165:10 0.000282924
5 *165:8 7.52297e-05
6 grant[27] grant[30] 3.82719e-06
7 grant[27] *175:36 0.000529976
8 grant[27] *248:11 0.000102535
9 grant[27] *248:15 1.15094e-06
10 *455:A3 *374:A1 1.37673e-05
11 *455:A3 *235:9 9.64949e-05
12 *455:A3 *240:25 4.21607e-06
13 *455:A3 *271:13 0.000103707
14 *165:8 *235:9 7.95929e-05
15 *165:8 *271:13 7.90491e-05
16 grant[23] grant[27] 1.1605e-05
17 *148:24 *455:A3 3.56012e-06
18 *149:14 grant[27] 9.01395e-05
19 *161:12 *455:A3 7.16188e-07
20 *161:19 *455:A3 2.61469e-06
*RES
1 *380:ZN *165:8 14.3214 
2 *165:8 *165:10 5 
3 *165:10 grant[27] 50.0357 
4 *165:8 *455:A3 19.5357 
*END

*D_NET *166 0.00254793
*CONN
*P grant[28] O
*I *376:ZN O *D AND4_X1
*CAP
1 grant[28] 2.02498e-05
2 *376:ZN 0.000235788
3 *166:14 0.000381394
4 *166:12 0.000361144
5 *166:10 0.000235788
6 grant[28] *227:11 6.4294e-06
7 *166:10 *170:14 3.74493e-05
8 *166:10 *170:25 1.52538e-05
9 *166:10 *210:10 1.61002e-06
10 *166:10 *215:42 3.0115e-05
11 *166:10 *229:9 0
12 *166:10 *248:17 9.65381e-05
13 *166:10 *266:9 3.38564e-05
14 *166:14 grant[2] 4.55278e-05
15 *166:14 *467:A1 1.32348e-05
16 *166:14 *195:18 3.47215e-05
17 *166:14 *201:21 0.000167334
18 *166:14 *227:11 0.000224981
19 grant[26] grant[28] 5.04493e-06
20 grant[26] *166:14 8.97215e-05
21 *372:A2 *166:10 9.23835e-05
22 *373:A3 *166:10 1.52725e-05
23 *467:A2 *166:14 8.4114e-05
24 *29:10 *166:10 3.4243e-05
25 *29:14 *166:10 1.40462e-05
26 *56:10 *166:10 0.00010233
27 *149:14 *166:10 9.70757e-05
28 *157:10 *166:10 0
29 *159:19 *166:14 7.22854e-05
*RES
1 *376:ZN *166:10 45.2857 
2 *166:10 *166:12 5 
3 *166:12 *166:14 60.25 
4 *166:14 grant[28] 2.64286 
*END

*D_NET *167 0.00266514
*CONN
*P grant[29] O
*I *385:ZN O *D INV_X1
*CAP
1 grant[29] 0.000340913
2 *385:ZN 0.00012693
3 *167:12 0.00045331
4 *167:8 0.000239327
5 grant[29] grant[33] 2.05033e-06
6 grant[29] *247:13 0.000139675
7 grant[29] *278:5 0.000245282
8 grant[29] *278:15 6.98513e-06
9 *167:8 *237:5 0.00020312
10 *167:8 *245:19 2.77304e-05
11 *167:8 *249:13 0.000267601
12 *167:12 *305:A1 4.80268e-06
13 *167:12 *305:A2 0.000100243
14 *167:12 *224:9 9.22998e-06
15 *167:12 *226:21 6.31375e-05
16 *167:12 *232:9 4.71277e-05
17 grant[17] grant[29] 5.90636e-05
18 *157:16 *167:12 0.000328611
*RES
1 *385:ZN *167:8 35.25 
2 *167:8 *167:12 26.2857 
3 *167:12 grant[29] 55.0357 
*END

*D_NET *168 0.00292649
*CONN
*P grant[2] O
*I *319:ZN O *D NOR3_X1
*CAP
1 grant[2] 0.000150784
2 *319:ZN 0
3 *168:12 0.000453991
4 *168:6 0.000649136
5 *168:4 0.000345929
6 grant[2] grant[31] 5.0295e-05
7 grant[2] *195:18 0.000219652
8 grant[2] *227:11 0.000231344
9 *168:6 grant[59] 5.53965e-05
10 *168:6 *318:A 2.39679e-06
11 *168:6 *319:A1 2.39679e-06
12 *168:6 *200:41 1.36876e-05
13 *168:6 *280:12 8.5442e-05
14 *168:6 *280:16 4.72955e-05
15 *168:12 *247:9 0
16 *168:12 *254:9 0.000455566
17 *317:A1 *168:6 2.59425e-05
18 *157:8 *168:6 9.17115e-05
19 *166:14 grant[2] 4.55278e-05
*RES
1 *319:ZN *168:4 5 
2 *168:4 *168:6 51.25 
3 *168:6 *168:12 44.8572 
4 *168:12 grant[2] 31.0357 
*END

*D_NET *169 0.00235891
*CONN
*P grant[30] O
*I *387:ZN O *D AND3_X1
*CAP
1 grant[30] 0.000377606
2 *387:ZN 0.000113625
3 *169:10 0.00049123
4 grant[30] grant[34] 0.00011915
5 grant[30] *175:36 0.000577228
6 grant[30] *220:13 1.6658e-05
7 grant[30] *254:15 0.000408458
8 *169:10 *306:A3 1.07288e-06
9 *169:10 *306:A4 4.56984e-07
10 *169:10 *386:A 7.14654e-06
11 *169:10 *221:31 5.10087e-06
12 *169:10 *239:19 4.82099e-06
13 *169:10 *240:42 1.25962e-05
14 grant[27] grant[30] 3.82719e-06
15 *26:12 *169:10 0.00014174
16 *26:26 *169:10 4.06395e-06
17 *64:14 grant[30] 5.52959e-06
18 *64:14 *169:10 3.20741e-05
19 *64:20 *169:10 4.92863e-06
20 *149:14 grant[30] 3.15956e-05
*RES
1 *387:ZN *169:10 29.5 
2 *169:10 grant[30] 70.0357 
*END

*D_NET *170 0.00186641
*CONN
*P grant[31] O
*I *467:A4 I *D NOR4_X1
*I *389:ZN O *D NOR2_X1
*CAP
1 grant[31] 0.000341569
2 *467:A4 0
3 *389:ZN 5.16632e-05
4 *170:25 0.000372544
5 *170:14 8.26381e-05
6 grant[31] grant[32] 0.000288913
7 grant[31] *195:12 4.96151e-05
8 grant[31] *195:18 0.00043927
9 *170:14 *210:10 5.37422e-05
10 *170:14 *212:18 2.90397e-05
11 *170:14 *215:42 1.26488e-05
12 *170:25 *201:10 7.94852e-06
13 *170:25 *210:10 3.38207e-05
14 grant[2] grant[31] 5.0295e-05
15 *166:10 *170:14 3.74493e-05
16 *166:10 *170:25 1.52538e-05
*RES
1 *389:ZN *170:14 19.4286 
2 *170:14 *467:A4 10 
3 *170:14 *170:25 10 
4 *170:25 grant[31] 62.0357 
*END

*D_NET *171 0.00448604
*CONN
*P grant[32] O
*I *382:ZN O *D NOR2_X1
*CAP
1 grant[32] 0.000406221
2 *382:ZN 2.40902e-05
3 *171:12 0.000406221
4 *171:10 0.000561423
5 *171:8 0.000585513
6 grant[32] *178:27 1.87637e-06
7 grant[32] *180:28 3.46864e-06
8 grant[32] *195:12 2.93813e-05
9 grant[32] *210:8 0.000132963
10 grant[32] *260:7 1.3917e-06
11 grant[32] *260:9 0.000668008
12 *171:8 *172:26 2.31371e-05
13 *171:8 *247:13 6.82202e-07
14 *171:10 *306:A1 2.86672e-05
15 *171:10 *383:A1 1.58545e-05
16 *171:10 *478:C1 0.000107309
17 *171:10 *179:8 8.83341e-05
18 *171:10 *215:21 0.000172173
19 *171:10 *237:9 6.91769e-05
20 *171:10 *257:19 4.62986e-06
21 grant[31] grant[32] 0.000288913
22 *367:A2 *171:10 1.62284e-05
23 *375:A1 *171:10 3.11158e-06
24 *387:A3 *171:10 1.45919e-05
25 *468:A4 *171:10 4.16485e-05
26 *11:70 *171:10 1.02819e-05
27 *43:23 *171:10 8.08825e-05
28 *43:25 *171:10 0.000167891
29 *43:27 *171:10 0.00016601
30 *43:33 *171:8 4.68088e-05
31 *43:33 *171:10 0.000218626
32 *48:12 *171:10 2.95007e-05
33 *70:47 *171:10 7.10228e-05
34 *150:27 *171:10 0
*RES
1 *382:ZN *171:8 14.75 
2 *171:8 *171:10 79.6429 
3 *171:10 *171:12 5 
4 *171:12 grant[32] 75.5357 
*END

*D_NET *172 0.00288763
*CONN
*P grant[33] O
*I *461:A1 I *D NOR4_X1
*I *394:ZN O *D NOR4_X2
*CAP
1 grant[33] 3.9291e-05
2 *461:A1 0.000134618
3 *394:ZN 7.01164e-06
4 *172:26 0.000526009
5 *172:24 0.000605546
6 *172:8 0.000260457
7 grant[33] *276:9 1.36901e-05
8 *461:A1 *461:A2 1.25189e-05
9 *461:A1 *461:A3 1.68643e-06
10 *461:A1 *243:9 3.49301e-05
11 *461:A1 *247:23 0
12 *461:A1 *255:9 2.51401e-05
13 *461:A1 *265:33 8.24917e-06
14 *172:8 *243:13 1.32323e-05
15 *172:24 *381:A2 3.58851e-06
16 *172:24 *175:22 2.14856e-06
17 *172:24 *243:9 2.84765e-06
18 *172:24 *243:17 4.92863e-06
19 *172:24 *255:9 2.26306e-06
20 *172:26 grant[47] 7.72792e-06
21 *172:26 grant[51] 0.000155348
22 *172:26 *175:22 0.000109703
23 *172:26 *247:13 0
24 grant[17] grant[33] 2.05033e-06
25 grant[17] *172:26 5.03184e-05
26 grant[19] *172:26 0.00054385
27 grant[29] grant[33] 2.05033e-06
28 *291:A2 *172:24 4.64501e-06
29 *381:A1 *172:24 1.25215e-05
30 *382:A1 *172:24 7.29164e-07
31 *382:A2 *172:24 3.2439e-05
32 *394:A1 *172:24 7.93153e-05
33 *398:A1 *461:A1 0
34 *463:A3 *461:A1 6.06622e-05
35 *10:12 *172:24 8.61541e-05
36 *43:33 *172:24 6.0887e-06
37 *43:33 *172:26 2.14856e-06
38 *43:52 *172:8 7.06263e-06
39 *43:52 *172:24 3.51992e-06
40 *171:8 *172:26 2.31371e-05
*RES
1 *394:ZN *172:8 11.25 
2 *172:8 *172:24 24.3214 
3 *172:24 *172:26 80.75 
4 *172:26 grant[33] 14.1786 
5 *172:8 *461:A1 27.75 
*END

*D_NET *173 0.00369042
*CONN
*P grant[34] O
*I *396:ZN O *D NOR3_X1
*CAP
1 grant[34] 0.000153351
2 *396:ZN 1.27244e-05
3 *173:14 0.000625509
4 *173:12 0.000472158
5 *173:10 0.000352049
6 *173:8 0.000364773
7 grant[34] *220:13 4.57414e-05
8 grant[34] *271:7 1.42277e-05
9 grant[34] *271:9 4.373e-05
10 *173:8 index[3] 7.16188e-07
11 *173:8 *175:18 2.14856e-06
12 *173:8 *213:30 1.21774e-06
13 *173:10 index[3] 2.24822e-06
14 *173:10 *288:A 2.47811e-05
15 *173:10 *289:A 1.43238e-06
16 *173:10 *175:18 2.04265e-05
17 *173:10 *187:35 0.000761997
18 *173:10 *203:30 0.000292842
19 *173:10 *241:13 8.61582e-05
20 *173:14 *247:9 0.000293044
21 grant[30] grant[34] 0.00011915
22 *381:A1 *173:10 0
23 *396:A2 *173:8 0
24 *162:14 *173:14 0
*RES
1 *396:ZN *173:8 6.67857 
2 *173:8 *173:10 70.25 
3 *173:10 *173:12 5 
4 *173:12 *173:14 51.8214 
5 *173:14 grant[34] 30.0357 
*END

*D_NET *174 0.00293347
*CONN
*P grant[35] O
*I *461:A2 I *D NOR4_X1
*I *398:ZN O *D NOR2_X1
*CAP
1 grant[35] 0.000624583
2 *461:A2 2.6983e-05
3 *398:ZN 0
4 *174:10 0.000823136
5 *174:6 0.000225536
6 grant[35] grant[44] 0.000488409
7 grant[35] *256:5 0
8 *461:A2 *461:A3 1.25189e-05
9 *461:A2 *183:20 4.26902e-05
10 *461:A2 *183:31 1.18901e-05
11 *461:A2 *213:20 7.47404e-05
12 *461:A2 *244:21 4.80268e-06
13 *174:10 *396:A1 9.69244e-06
14 *174:10 *213:20 0.000244941
15 *174:10 *244:21 1.01993e-05
16 *174:10 *244:23 1.59409e-05
17 *174:10 *255:9 0
18 grant[15] grant[35] 0.000190245
19 grant[24] grant[35] 0.000102464
20 *461:A1 *461:A2 1.25189e-05
21 *152:12 *174:10 1.21754e-05
*RES
1 *398:ZN *174:6 10 
2 *174:6 *174:10 30.3572 
3 *174:10 grant[35] 101.036 
4 *174:6 *461:A2 15.5714 
*END

*D_NET *175 0.00510646
*CONN
*P grant[36] O
*I *393:ZN O *D AND4_X1
*CAP
1 grant[36] 8.20294e-05
2 *393:ZN 0.000238739
3 *175:36 0.000331428
4 *175:34 0.000374285
5 *175:30 0.000323963
6 *175:22 0.000342434
7 *175:18 0.000382096
8 grant[36] *240:9 1.52083e-06
9 grant[36] *276:13 1.50348e-05
10 *175:18 *290:A2 3.01634e-05
11 *175:18 *292:A2 2.16072e-07
12 *175:18 *396:A1 1.00271e-05
13 *175:18 *192:14 3.10376e-06
14 *175:18 *192:30 0.000151813
15 *175:18 *203:22 0
16 *175:18 *213:30 0
17 *175:18 *242:17 7.70225e-06
18 *175:18 *247:23 0
19 *175:18 *247:29 7.34533e-06
20 *175:22 grant[51] 0.000295325
21 *175:22 *289:A 1.87637e-06
22 *175:22 *381:A2 1.74934e-05
23 *175:30 *356:A 3.05895e-05
24 *175:30 *209:33 3.80995e-05
25 *175:30 *218:9 1.60038e-06
26 *175:30 *221:27 2.35379e-05
27 *175:30 *224:9 2.06992e-05
28 *175:30 *225:17 3.76044e-05
29 *175:30 *225:23 2.49907e-05
30 *175:30 *225:25 2.67548e-05
31 *175:30 *226:44 7.52322e-06
32 *175:30 *229:5 6.85774e-07
33 *175:30 *229:9 1.65458e-05
34 *175:30 *266:9 6.1728e-05
35 *175:34 *362:A1 5.41015e-05
36 *175:34 *368:A2 3.53507e-06
37 *175:34 *377:A1 9.14677e-05
38 *175:34 *189:37 1.06128e-06
39 *175:34 *232:9 1.12287e-05
40 *175:34 *234:37 7.82425e-05
41 *175:34 *235:19 6.44159e-05
42 grant[11] grant[36] 5.37017e-06
43 grant[12] grant[36] 8.39748e-06
44 grant[13] grant[36] 2.89018e-05
45 grant[23] grant[36] 7.94852e-06
46 grant[27] *175:36 0.000529976
47 grant[30] *175:36 0.000577228
48 *291:A2 *175:18 1.74562e-05
49 *357:A2 *175:30 9.19829e-05
50 *359:A3 *175:30 3.01743e-06
51 *380:A2 *175:34 2.68218e-07
52 *381:A1 *175:18 4.32144e-07
53 *381:A3 *175:18 3.33505e-06
54 *382:A2 *175:22 9.55734e-06
55 *394:A1 *175:18 2.44844e-05
56 *8:8 *175:18 2.01897e-05
57 *57:8 *175:30 7.80171e-05
58 *66:43 *175:34 4.42201e-06
59 *123:8 *175:30 0.000246152
60 *148:24 grant[36] 2.39679e-06
61 *149:14 *175:36 1.89312e-05
62 *157:10 *175:34 1.89787e-05
63 *157:16 *175:34 2.00731e-05
64 *163:8 *175:34 4.35107e-05
65 *172:24 *175:22 2.14856e-06
66 *172:26 *175:22 0.000109703
67 *173:8 *175:18 2.14856e-06
68 *173:10 *175:18 2.04265e-05
*RES
1 *393:ZN *175:18 48.8214 
2 *175:18 *175:22 32.75 
3 *175:22 *175:30 45.2143 
4 *175:30 *175:34 24.25 
5 *175:34 *175:36 53.75 
6 *175:36 grant[36] 19.25 
*END

*D_NET *176 0.0056322
*CONN
*P grant[37] O
*I *458:A1 I *D NOR3_X1
*I *401:ZN O *D AND3_X1
*CAP
1 grant[37] 3.66085e-05
2 *458:A1 9.86944e-06
3 *401:ZN 6.4739e-05
4 *176:23 0.000621972
5 *176:21 0.000585363
6 *176:19 0.000380916
7 *176:8 0.000455524
8 grant[37] grant[39] 2.05033e-06
9 grant[37] *231:9 2.48069e-05
10 grant[37] *258:11 2.05033e-06
11 *458:A1 *458:A2 1.26998e-05
12 *458:A1 *273:35 1.28122e-06
13 *176:8 *245:25 0.000215074
14 *176:19 *178:21 0.000126444
15 *176:19 *203:18 2.65637e-05
16 *176:19 *214:8 2.3767e-06
17 *176:19 *245:25 0.000120047
18 *176:19 *248:21 0.000195877
19 *176:19 *257:33 1.13359e-05
20 *176:23 index[2] 0.000119279
21 *176:23 *495:A 2.54935e-05
22 *176:23 *178:27 0.000419881
23 *176:23 *178:33 0.000237303
24 *176:23 *180:20 6.56007e-06
25 *176:23 *180:28 0.000755587
26 *176:23 *210:8 3.65322e-06
27 *176:23 *250:23 0.00040994
28 *176:23 *250:31 5.76174e-05
29 *176:23 *260:7 2.75346e-06
30 *176:23 *260:9 1.35888e-05
31 *293:A *176:8 1.57812e-05
32 *293:A *176:19 9.91569e-06
33 *303:A1 *176:19 5.54348e-05
34 *474:A *176:8 5.46432e-05
35 *486:B1 *176:19 9.91569e-06
36 *486:B2 *176:19 9.38792e-05
37 *490:A *176:19 9.15917e-05
38 *490:B2 *176:19 4.75018e-05
39 *12:21 *176:8 3.8814e-05
40 *22:16 *176:19 2.91785e-06
41 *22:33 *176:19 0.000209659
42 *94:29 *176:19 5.48932e-05
*RES
1 *401:ZN *176:8 21.7857 
2 *176:8 *458:A1 11.25 
3 *176:8 *176:19 65.3929 
4 *176:19 *176:21 5 
5 *176:21 *176:23 115.25 
6 *176:23 grant[37] 14.1786 
*END

*D_NET *177 0.00340863
*CONN
*P grant[38] O
*I *404:ZN O *D NOR3_X1
*CAP
1 grant[38] 0.000707833
2 *404:ZN 0.000222869
3 *177:10 0.000930702
4 grant[38] grant[60] 0.000588068
5 grant[38] *262:5 0.00014076
6 *177:10 *391:A1 4.26902e-05
7 *177:10 *184:8 0.000454861
8 grant[16] grant[38] 0.00031604
9 *404:A3 *177:10 4.80378e-06
*RES
1 *404:ZN *177:10 47.1429 
2 *177:10 grant[38] 121.036 
*END

*D_NET *178 0.00573134
*CONN
*P grant[39] O
*I *458:A2 I *D NOR3_X1
*I *405:ZN O *D AND2_X1
*CAP
1 grant[39] 4.50475e-05
2 *458:A2 2.55729e-05
3 *405:ZN 4.0096e-05
4 *178:33 0.000502086
5 *178:31 0.00048548
6 *178:27 0.000278659
7 *178:21 0.000537991
8 *178:10 0.000353443
9 grant[39] grant[40] 6.77571e-05
10 grant[39] index[2] 0
11 grant[39] *250:7 1.44187e-05
12 grant[39] *258:11 1.28122e-06
13 grant[39] *276:13 6.72155e-05
14 *458:A2 *257:23 1.28122e-06
15 *178:10 *248:21 7.81217e-05
16 *178:10 *253:33 1.36816e-05
17 *178:10 *257:23 4.21607e-06
18 *178:10 *261:35 1.25215e-05
19 *178:10 *269:39 4.10252e-06
20 *178:21 *214:8 0.000949462
21 *178:21 *248:21 0.000648473
22 *178:21 *269:39 1.62382e-06
23 *178:27 *180:20 0.000133139
24 *178:27 *195:12 0
25 *178:27 *210:8 8.26038e-06
26 *178:33 index[2] 8.89076e-05
27 *178:33 *328:A 7.72792e-06
28 *178:33 *207:20 0
29 *178:33 *250:7 0
30 *178:33 *250:11 0
31 *178:33 *250:19 1.68643e-06
32 *178:33 *250:23 0.00013243
33 *178:33 *277:13 0.000227199
34 *178:33 *277:15 4.88515e-05
35 grant[32] *178:27 1.87637e-06
36 grant[37] grant[39] 2.05033e-06
37 *458:A1 *458:A2 1.26998e-05
38 *458:A3 *458:A2 8.43215e-07
39 *463:A2 *458:A2 4.21607e-06
40 *468:A1 *178:27 7.72537e-06
41 *468:A1 *178:31 5.25119e-06
42 *468:A2 *178:27 3.26724e-05
43 *2:8 *178:33 2.16105e-05
44 *41:10 *178:33 1.58306e-05
45 *83:26 *458:A2 1.08036e-06
46 *83:28 *178:10 2.37916e-06
47 *83:28 *178:21 5.87477e-05
48 *176:19 *178:21 0.000126444
49 *176:23 *178:27 0.000419881
50 *176:23 *178:33 0.000237303
*RES
1 *405:ZN *178:10 15.5714 
2 *178:10 *458:A2 12.75 
3 *178:10 *178:21 65.3929 
4 *178:21 *178:27 49.75 
5 *178:27 *178:31 7.28572 
6 *178:31 *178:33 71.25 
7 *178:33 grant[39] 17.1786 
*END

*D_NET *179 0.00380673
*CONN
*P grant[3] O
*I *323:ZN O *D INV_X1
*CAP
1 grant[3] 0.000380473
2 *323:ZN 0
3 *179:26 0.000380473
4 *179:24 0.000270075
5 *179:8 0.000830432
6 *179:6 0.000560357
7 grant[3] grant[5] 0
8 grant[3] grant[9] 1.34787e-05
9 grant[3] *307:A3 3.259e-05
10 grant[3] *378:A 7.72792e-06
11 grant[3] *217:5 0.000221915
12 grant[3] *234:17 1.27666e-06
13 grant[3] *234:27 2.56243e-06
14 *179:8 *383:A1 1.7529e-05
15 *179:8 *208:12 0
16 *179:24 *480:B1 0
17 *179:24 *205:12 9.66678e-07
18 *179:24 *209:33 3.85172e-05
19 *179:24 *221:27 0.000129582
20 *179:24 *229:9 2.82698e-06
21 *179:24 *234:27 2.38979e-05
22 *179:24 *234:37 0
23 *308:A2 *179:24 3.65322e-06
24 *322:A2 *179:8 0
25 *367:A2 *179:24 0
26 *367:A3 *179:24 0
27 *375:A1 *179:8 2.96269e-05
28 *375:A2 *179:24 7.72537e-06
29 *387:A3 *179:8 1.33892e-05
30 *455:A1 *179:24 2.51306e-06
31 *465:A2 *179:8 9.15924e-05
32 *465:B2 *179:8 9.20608e-05
33 *466:A4 *179:8 0.000315993
34 *468:A1 *179:8 1.05181e-05
35 *468:A4 *179:8 8.29353e-06
36 *478:B *179:8 0
37 *478:C2 *179:8 0
38 *484:B2 *179:8 0
39 *485:A1 *179:8 0
40 *11:70 *179:8 9.55059e-06
41 *27:14 *179:24 3.11688e-05
42 *43:21 *179:24 0
43 *43:23 *179:8 2.37916e-06
44 *66:10 *179:24 0
45 *70:43 *179:8 0.000106591
46 *70:47 *179:8 7.10228e-05
47 *157:16 *179:24 7.63742e-06
48 *162:12 grant[3] 0
49 *164:12 grant[3] 0
50 *171:10 *179:8 8.83341e-05
*RES
1 *323:ZN *179:6 10 
2 *179:6 *179:8 72.1786 
3 *179:8 *179:24 46.3372 
4 *179:24 *179:26 5 
5 *179:26 grant[3] 50.0357 
*END

*D_NET *180 0.00618199
*CONN
*P grant[40] O
*I *400:ZN O *D AND4_X1
*CAP
1 grant[40] 9.96551e-05
2 *400:ZN 7.56513e-06
3 *180:28 0.000404253
4 *180:26 0.000666385
5 *180:20 0.000623882
6 *180:10 0.000453484
7 *180:8 0.000198954
8 grant[40] *220:7 1.76033e-05
9 grant[40] *240:9 2.08098e-06
10 grant[40] *250:7 1.18891e-05
11 grant[40] *276:13 2.60624e-05
12 grant[40] *276:17 1.26998e-05
13 *180:8 *400:A1 0
14 *180:10 *457:A1 2.77248e-05
15 *180:10 *187:23 0.000295705
16 *180:10 *250:33 0.000974142
17 *180:10 *252:9 8.52505e-05
18 *180:20 *193:14 0
19 *180:20 *195:12 0
20 *180:20 *196:18 1.60184e-05
21 *180:20 *250:31 3.05568e-05
22 *180:20 *273:45 7.66428e-05
23 *180:26 *258:13 7.04121e-05
24 *180:28 *210:8 0.000116442
25 *180:28 *260:9 0.000631062
26 grant[32] *180:28 3.46864e-06
27 grant[39] grant[40] 6.77571e-05
28 *488:A1 *180:10 0.00016868
29 *21:10 *180:10 6.70842e-06
30 *22:39 *180:8 2.52965e-06
31 *101:10 *180:10 0.000171847
32 *101:50 *180:10 1.72426e-05
33 *176:23 *180:20 6.56007e-06
34 *176:23 *180:28 0.000755587
35 *178:27 *180:20 0.000133139
*RES
1 *400:ZN *180:8 10.75 
2 *180:8 *180:10 51.8214 
3 *180:10 *180:20 48.6786 
4 *180:20 *180:26 22.18 
5 *180:26 *180:28 69.75 
6 *180:28 grant[40] 22.4286 
*END

*D_NET *181 0.00543742
*CONN
*P grant[41] O
*I *413:ZN O *D NOR2_X1
*CAP
1 grant[41] 2.94439e-06
2 *413:ZN 0.000217551
3 *181:14 0.00152386
4 *181:12 0.00173847
5 grant[41] grant[45] 2.60945e-06
6 grant[41] *271:7 2.60945e-06
7 *181:12 *198:10 7.89979e-06
8 *181:14 *185:50 0.00103834
9 *181:14 *189:37 9.68603e-07
10 *181:14 *205:12 0
11 *181:14 *251:27 0
12 *181:14 *254:31 0.000532668
13 *413:A1 *181:12 7.72537e-06
14 *460:A *181:12 2.72171e-06
15 *460:C2 *181:12 1.16091e-05
16 *476:C1 *181:12 6.32069e-06
17 *86:8 *181:12 7.51424e-05
18 *86:10 *181:12 2.08098e-06
19 *114:10 *181:12 7.93748e-05
20 *115:16 *181:12 3.84881e-05
21 *126:10 *181:12 0.000146035
*RES
1 *413:ZN *181:12 49.25 
2 *181:12 *181:14 60.69 
3 *181:14 grant[41] 10.5357 
*END

*D_NET *182 0.00374087
*CONN
*P grant[42] O
*I *414:ZN O *D NOR3_X1
*CAP
1 grant[42] 0.000836958
2 *414:ZN 3.18892e-05
3 *182:16 0.00114368
4 *182:12 0.000338607
5 grant[42] grant[60] 0.000113951
6 grant[42] *255:5 0.000471911
7 grant[42] *267:5 0.000649142
8 *182:12 *414:A1 5.48744e-06
9 *182:16 *414:A1 4.30477e-06
10 *182:16 *198:16 0.000122781
11 *86:16 *182:12 1.96373e-05
12 *115:16 *182:12 2.52965e-06
*RES
1 *414:ZN *182:12 13.9643 
2 *182:12 *182:16 44.25 
3 *182:16 grant[42] 142.536 
*END

*D_NET *183 0.00704393
*CONN
*P grant[43] O
*I *461:A3 I *D NOR4_X1
*I *415:ZN O *D NOR2_X1
*CAP
1 grant[43] 5.44842e-05
2 *461:A3 1.05355e-05
3 *415:ZN 0.00018997
4 *183:35 0.000503475
5 *183:33 0.00044899
6 *183:31 0.000491772
7 *183:20 0.000601361
8 *183:14 0.000289023
9 grant[43] grant[46] 6.70982e-05
10 grant[43] *220:7 2.60945e-06
11 grant[43] *231:9 1.94663e-05
12 grant[43] *270:5 2.05033e-06
13 *183:14 *253:45 2.94119e-05
14 *183:14 *267:17 2.03683e-05
15 *183:20 *244:21 8.88497e-06
16 *183:31 *185:40 3.88073e-05
17 *183:31 *189:29 1.15607e-05
18 *183:31 *196:14 1.90574e-06
19 *183:31 *196:18 0.000173569
20 *183:31 *209:16 0.000280873
21 *183:31 *213:18 0.000324672
22 *183:31 *213:20 0.000202963
23 *183:31 *222:9 9.53007e-05
24 *183:31 *222:15 2.28631e-05
25 *183:31 *244:21 9.63416e-05
26 *183:31 *254:31 1.01234e-05
27 *183:35 grant[48] 0.00108125
28 *183:35 grant[4] 0.000668357
29 *183:35 *186:20 3.28137e-06
30 *183:35 *270:17 0.000404982
31 *398:A1 *183:20 1.78501e-05
32 *404:A2 *183:14 1.23573e-05
33 *415:A2 *183:14 1.82068e-05
34 *461:A1 *461:A3 1.68643e-06
35 *461:A2 *461:A3 1.25189e-05
36 *461:A2 *183:20 4.26902e-05
37 *461:A2 *183:31 1.18901e-05
38 *461:A4 *461:A3 2.75346e-06
39 *461:A4 *183:14 4.63446e-06
40 *461:A4 *183:20 6.56676e-05
41 *474:A *183:14 2.52965e-06
42 *474:B2 *183:14 1.19839e-05
43 *474:B2 *183:20 6.34194e-05
44 *475:C2 *183:14 0.0001859
45 *483:C2 *183:31 6.73899e-05
46 *492:C1 *183:31 3.68589e-05
47 *43:12 *183:31 0.000172139
48 *52:14 *183:31 0.000157108
*RES
1 *415:ZN *183:14 41.6429 
2 *183:14 *183:20 22.5357 
3 *183:20 *461:A3 11.75 
4 *183:20 *183:31 89.1429 
5 *183:31 *183:33 5 
6 *183:33 *183:35 100.25 
7 *183:35 grant[43] 16.8929 
*END

*D_NET *184 0.00436579
*CONN
*P grant[44] O
*I *408:ZN O *D AND4_X1
*CAP
1 grant[44] 0.000710576
2 *408:ZN 0
3 *184:10 0.000710576
4 *184:8 0.000448406
5 *184:6 0.000448406
6 grant[44] grant[57] 0.000583393
7 *184:8 *203:18 0.00015843
8 *184:8 *246:13 0
9 *184:8 *253:33 8.78664e-07
10 *184:8 *255:37 0
11 grant[35] grant[44] 0.000488409
12 *392:A3 *184:8 2.15929e-05
13 *404:A3 *184:8 3.80754e-05
14 *78:12 *184:8 0.000271437
15 *130:20 *184:8 3.07512e-05
16 *177:10 *184:8 0.000454861
*RES
1 *408:ZN *184:6 10 
2 *184:6 *184:8 67.4286 
3 *184:8 *184:10 5 
4 *184:10 grant[44] 120.536 
*END

*D_NET *185 0.00462845
*CONN
*P grant[45] O
*I *457:A1 I *D OR4_X1
*I *420:ZN O *D AND3_X1
*CAP
1 grant[45] 0.000211365
2 *457:A1 8.70203e-05
3 *420:ZN 0.000316826
4 *185:50 0.000680905
5 *185:40 0.000699345
6 grant[45] grant[49] 1.3917e-06
7 grant[45] *189:39 0.000449343
8 grant[45] *271:7 5.43035e-06
9 grant[45] *271:9 0.000183145
10 *457:A1 *423:A1 4.78054e-06
11 *457:A1 *424:A1 4.28905e-05
12 *457:A1 *187:12 2.39679e-06
13 *457:A1 *187:21 9.58715e-06
14 *457:A1 *187:23 1.6546e-05
15 *457:A1 *189:21 2.8749e-05
16 *185:40 *244:21 0.000133707
17 *185:40 *248:17 8.2756e-05
18 *185:40 *251:31 2.08416e-06
19 *185:40 *254:31 9.43619e-06
20 *185:50 *189:37 0.000264482
21 *185:50 *205:12 0
22 grant[41] grant[45] 2.60945e-06
23 *470:A1 *185:40 4.32144e-07
24 *21:10 *457:A1 1.88334e-06
25 *21:12 *457:A1 1.55671e-05
26 *21:14 *457:A1 8.25592e-06
27 *21:69 *457:A1 8.34777e-06
28 *22:14 *185:40 4.13128e-05
29 *44:25 *185:40 6.82202e-07
30 *52:14 *185:40 3.50288e-05
31 *94:27 *457:A1 3.17618e-05
32 *94:27 *185:40 9.99189e-05
33 *131:12 *185:40 2.42656e-05
34 *159:23 *185:50 1.03757e-05
35 *164:12 *185:50 1.09458e-05
36 *180:10 *457:A1 2.77248e-05
37 *181:14 *185:50 0.00103834
38 *183:31 *185:40 3.88073e-05
*RES
1 *420:ZN *457:A1 33.5 
2 *420:ZN *185:40 46.3929 
3 *185:40 *185:50 40.1771 
4 *185:50 grant[45] 41.5357 
*END

*D_NET *186 0.00619257
*CONN
*P grant[46] O
*I *423:ZN O *D NOR3_X1
*CAP
1 grant[46] 3.47166e-05
2 *423:ZN 0.000158249
3 *186:20 0.000612814
4 *186:18 0.000790558
5 *186:12 0.00037071
6 grant[46] *231:9 9.20438e-05
7 grant[46] *238:5 3.73676e-06
8 grant[46] *270:5 4.29855e-06
9 *186:12 *187:12 0.000106622
10 *186:12 *252:9 4.33419e-06
11 *186:12 *252:17 1.31338e-05
12 *186:12 *267:17 4.78324e-06
13 *186:12 *267:29 0.000139517
14 *186:12 *269:57 0.00023445
15 *186:18 *299:A3 5.86754e-06
16 *186:18 *197:10 0.000349146
17 *186:18 *252:9 7.99669e-06
18 *186:18 *270:21 1.09659e-05
19 *186:18 *270:23 1.70033e-05
20 *186:20 grant[4] 0.000663564
21 *186:20 grant[50] 0.00143369
22 *186:20 *270:17 0.000760799
23 grant[43] grant[46] 6.70982e-05
24 *423:A3 *186:12 0.000131211
25 *438:A2 *186:12 5.74523e-06
26 *471:B2 *186:12 1.72858e-06
27 *472:C1 *186:12 2.77939e-05
28 *20:10 *186:18 0
29 *94:10 *186:12 0.000127824
30 *97:27 *186:18 8.88497e-06
31 *183:35 *186:20 3.28137e-06
*RES
1 *423:ZN *186:12 47.1429 
2 *186:12 *186:18 39.4286 
3 *186:18 *186:20 132.25 
4 *186:20 grant[46] 16.0357 
*END

*D_NET *187 0.00594921
*CONN
*P grant[47] O
*I *457:A2 I *D OR4_X1
*I *424:ZN O *D AND2_X1
*CAP
1 grant[47] 5.16457e-05
2 *457:A2 0
3 *424:ZN 3.46832e-05
4 *187:35 0.000462203
5 *187:33 0.000435861
6 *187:27 0.000252322
7 *187:23 0.000545288
8 *187:21 0.000332576
9 *187:12 4.89899e-05
10 grant[47] grant[51] 4.48581e-06
11 grant[47] grant[56] 1.48912e-05
12 grant[47] *276:9 1.11357e-05
13 *187:12 *189:8 1.67775e-05
14 *187:12 *252:17 0.000107163
15 *187:21 *423:A1 6.82202e-07
16 *187:21 *189:8 2.39679e-06
17 *187:21 *189:21 4.79358e-06
18 *187:23 *294:A2 2.82617e-05
19 *187:23 *189:21 2.59737e-05
20 *187:23 *197:10 8.87474e-05
21 *187:23 *197:16 3.51823e-06
22 *187:23 *250:33 2.30574e-05
23 *187:23 *252:17 0
24 *187:23 *253:45 4.16195e-06
25 *187:23 *253:71 4.33419e-06
26 *187:23 *267:13 3.20904e-05
27 *187:23 *267:17 0
28 *187:27 *192:14 0
29 *187:27 *197:18 0.000421276
30 *187:27 *203:22 0.000263707
31 *187:33 *395:A 3.48838e-06
32 *187:33 *255:9 3.34509e-06
33 *187:35 index[3] 0.00102419
34 *187:35 *203:30 0.0001141
35 grant[19] grant[47] 1.3917e-06
36 *400:A4 *187:23 2.09871e-05
37 *409:A2 *187:23 1.07633e-05
38 *457:A1 *187:12 2.39679e-06
39 *457:A1 *187:21 9.58715e-06
40 *457:A1 *187:23 1.6546e-05
41 *475:C1 *187:23 8.14262e-05
42 *475:C2 *187:23 0.000182469
43 *14:23 *187:23 4.24402e-05
44 *21:14 *187:23 2.66621e-05
45 *21:16 *187:23 7.82257e-06
46 *21:22 *187:23 7.65279e-06
47 *21:69 *187:21 8.64288e-07
48 *172:26 grant[47] 7.72792e-06
49 *173:10 *187:35 0.000761997
50 *180:10 *187:23 0.000295705
51 *186:12 *187:12 0.000106622
*RES
1 *424:ZN *187:12 22.4286 
2 *187:12 *457:A2 5 
3 *187:12 *187:21 6.75 
4 *187:21 *187:23 53.1786 
5 *187:23 *187:27 45.75 
6 *187:27 *187:33 12.2857 
7 *187:33 *187:35 93.75 
8 *187:35 grant[47] 16.0357 
*END

*D_NET *188 0.00581408
*CONN
*P grant[48] O
*I *419:ZN O *D AND4_X1
*CAP
1 grant[48] 0.000657552
2 *419:ZN 6.63535e-06
3 *188:16 0.000938505
4 *188:10 0.000584608
5 *188:8 0.00031029
6 grant[48] grant[4] 1.20712e-06
7 grant[48] *199:20 0.000102884
8 grant[48] *238:5 0.000238075
9 grant[48] *238:13 0.000343224
10 grant[48] *270:17 0.000106177
11 *188:8 *419:A2 0
12 *188:10 *191:10 8.02977e-06
13 *188:10 *191:18 0.000109097
14 *188:10 *205:10 0.000506298
15 *188:10 *258:17 0
16 *188:10 *275:17 0.000515334
17 *188:16 grant[50] 0
18 *188:16 *436:A2 5.12483e-05
19 *188:16 *448:A1 8.07358e-05
20 *188:16 *199:18 2.67779e-05
21 *188:16 *199:20 1.21774e-06
22 *188:16 *269:72 4.74299e-05
23 *188:16 *270:17 3.12278e-05
24 *422:A1 *188:10 1.50869e-06
25 *429:A2 *188:8 7.19036e-06
26 *448:A3 *188:16 4.41532e-05
27 *15:8 *188:10 9.73318e-06
28 *92:27 *188:10 3.69646e-06
29 *183:35 grant[48] 0.00108125
*RES
1 *419:ZN *188:8 10.75 
2 *188:8 *188:10 55.2143 
3 *188:10 *188:16 43.0357 
4 *188:16 grant[48] 122.679 
*END

*D_NET *189 0.00434212
*CONN
*P grant[49] O
*I *457:A3 I *D OR4_X1
*I *429:ZN O *D AND3_X1
*CAP
1 grant[49] 1.14691e-05
2 *457:A3 0
3 *429:ZN 0.000185755
4 *189:39 0.000319536
5 *189:37 0.000820894
6 *189:29 0.000806607
7 *189:21 0.000328903
8 *189:8 0.000220878
9 grant[49] grant[52] 2.60945e-06
10 *189:29 *407:A2 5.50692e-06
11 *189:29 *244:21 3.00795e-06
12 *189:29 *255:23 0.000175015
13 *189:29 *256:13 5.65794e-05
14 *189:29 *257:33 8.93487e-05
15 *189:37 *205:12 9.187e-05
16 *189:39 grant[52] 0.000121092
17 *189:39 *235:50 5.99828e-06
18 *189:39 *271:9 1.07997e-05
19 grant[45] grant[49] 1.3917e-06
20 grant[45] *189:39 0.000449343
21 *380:A2 *189:37 2.07386e-05
22 *423:A2 *189:29 4.46096e-06
23 *457:A1 *189:21 2.8749e-05
24 *457:A4 *189:8 3.64868e-05
25 *457:A4 *189:21 2.39679e-06
26 *481:A2 *189:39 6.42074e-05
27 *21:10 *189:8 0
28 *21:14 *189:21 0.000102752
29 *21:69 *189:21 1.68643e-06
30 *130:20 *189:29 0
31 *150:35 *189:39 4.41389e-05
32 *163:8 *189:37 1.88334e-06
33 *175:34 *189:37 1.06128e-06
34 *181:14 *189:37 9.68603e-07
35 *183:31 *189:29 1.15607e-05
36 *185:50 *189:37 0.000264482
37 *187:12 *189:8 1.67775e-05
38 *187:21 *189:8 2.39679e-06
39 *187:21 *189:21 4.79358e-06
40 *187:23 *189:21 2.59737e-05
*RES
1 *429:ZN *189:8 24.6786 
2 *189:8 *457:A3 5 
3 *189:8 *189:21 16.4286 
4 *189:21 *189:29 46.8929 
5 *189:29 *189:37 31.3743 
6 *189:37 *189:39 52.25 
7 *189:39 grant[49] 1.46429 
*END

*D_NET *190 0.00195823
*CONN
*P grant[4] O
*I *326:ZN O *D AND4_X1
*CAP
1 grant[4] 0.000271964
2 *326:ZN 2.94134e-05
3 *190:10 0.000301377
4 grant[4] grant[50] 3.6426e-06
5 *190:10 *270:15 1.87059e-05
6 grant[48] grant[4] 1.20712e-06
7 *183:35 grant[4] 0.000668357
8 *186:20 grant[4] 0.000663564
*RES
1 *326:ZN *190:10 17.9643 
2 *190:10 grant[4] 62.0357 
*END

*D_NET *191 0.0059639
*CONN
*P grant[50] O
*I *431:ZN O *D NOR2_X1
*CAP
1 grant[50] 0.00110836
2 *431:ZN 0
3 *191:18 0.00131995
4 *191:10 0.000424259
5 *191:6 0.000212672
6 grant[50] *322:A1 1.55006e-06
7 grant[50] *436:A2 1.02178e-05
8 grant[50] *196:20 0
9 grant[50] *200:31 0
10 grant[50] *216:13 0
11 grant[50] *254:7 0.000146319
12 grant[50] *269:72 7.67361e-06
13 grant[50] *270:17 6.56007e-06
14 *191:10 *295:A3 3.82152e-06
15 *191:10 *296:A 0.000119869
16 *191:10 *417:A1 4.92317e-06
17 *191:10 *205:10 0.000631679
18 *191:10 *261:41 2.14728e-06
19 *191:10 *261:52 4.10092e-06
20 *191:10 *262:24 1.52083e-06
21 *191:10 *262:35 4.45814e-05
22 *191:10 *275:17 1.66988e-05
23 *191:18 *296:A 7.19036e-06
24 *191:18 *444:A 1.60668e-05
25 *191:18 *258:17 4.75554e-05
26 *191:18 *272:9 6.0564e-05
27 *191:18 *275:17 1.50871e-05
28 grant[4] grant[50] 3.6426e-06
29 *322:A2 grant[50] 7.72537e-06
30 *419:A1 *191:10 2.57883e-05
31 *419:A4 *191:10 1.78252e-06
32 *426:A1 *191:18 0
33 *429:A2 *191:10 1.16067e-05
34 *468:A1 grant[50] 4.32144e-07
35 *472:B *191:18 2.77939e-05
36 *18:12 *191:10 5.11191e-06
37 *18:14 *191:10 3.89326e-05
38 *18:20 *191:10 2.51151e-05
39 *38:8 grant[50] 8.99598e-06
40 *91:8 *191:10 4.80515e-06
41 *92:8 *191:10 3.79933e-05
42 *186:20 grant[50] 0.00143369
43 *188:10 *191:10 8.02977e-06
44 *188:10 *191:18 0.000109097
45 *188:16 grant[50] 0
*RES
1 *431:ZN *191:6 10 
2 *191:6 *191:10 48 
3 *191:10 *191:18 42.8572 
4 *191:18 grant[50] 158.036 
*END

*D_NET *192 0.00435936
*CONN
*P grant[51] O
*I *433:ZN O *D INV_X1
*CAP
1 grant[51] 0.000456116
2 *433:ZN 0.000181732
3 *192:30 0.000789662
4 *192:14 0.000747815
5 *192:10 0.000596
6 grant[51] grant[56] 8.6104e-06
7 grant[51] *289:A 1.25189e-05
8 grant[51] *203:30 2.52487e-05
9 grant[51] *241:13 0.000793792
10 *192:10 *261:41 4.78905e-05
11 *192:10 *262:11 0
12 *192:10 *262:13 2.40398e-05
13 *192:14 *292:A3 9.57492e-07
14 *192:14 *391:A2 7.31355e-06
15 *192:14 *393:A2 7.16188e-07
16 *192:14 *401:A1 4.78054e-06
17 *192:14 *203:22 0
18 *192:14 *267:13 1.47255e-05
19 *192:30 *292:A2 3.19164e-07
20 *192:30 *393:A2 3.09143e-06
21 *192:30 *203:22 0
22 *192:30 *213:20 1.85874e-05
23 *192:30 *242:17 6.48738e-06
24 grant[47] grant[51] 4.48581e-06
25 *393:A3 *192:14 1.68643e-06
26 *393:A4 *192:14 7.19036e-06
27 *404:A2 *192:14 0
28 *172:26 grant[51] 0.000155348
29 *175:18 *192:14 3.10376e-06
30 *175:18 *192:30 0.000151813
31 *175:22 grant[51] 0.000295325
32 *187:27 *192:14 0
*RES
1 *433:ZN *192:10 38.3214 
2 *192:10 *192:14 44.1786 
3 *192:14 *192:30 42.5643 
4 *192:30 grant[51] 85.0358 
*END

*D_NET *193 0.00409649
*CONN
*P grant[52] O
*I *428:ZN O *D AND4_X1
*CAP
1 grant[52] 0.000320265
2 *428:ZN 0.000360787
3 *193:36 0.000329163
4 *193:30 0.000304071
5 *193:20 0.000598119
6 *193:14 0.000663733
7 *193:14 *195:12 5.36697e-05
8 *193:14 *209:16 0
9 *193:14 *213:18 9.62051e-07
10 *193:20 *344:A1 6.47589e-05
11 *193:20 *243:9 8.88947e-05
12 *193:30 *377:A1 2.13169e-05
13 *193:30 *480:B1 8.43215e-07
14 *193:30 *480:B2 6.65423e-06
15 *193:30 *220:21 0.000231195
16 *193:30 *236:13 1.11435e-06
17 *193:36 *217:9 4.18985e-05
18 *193:36 *226:9 4.24402e-05
19 grant[21] grant[52] 0.000194843
20 grant[49] grant[52] 2.60945e-06
21 *330:A2 *193:14 1.80879e-05
22 *344:A2 *193:20 6.42516e-05
23 *345:A4 *193:20 4.80119e-06
24 *348:A2 *193:20 7.99622e-05
25 *377:A2 *193:30 8.87679e-06
26 *379:A3 *193:30 3.17617e-05
27 *428:A3 *193:14 2.74621e-05
28 *464:A2 *193:14 1.28122e-06
29 *466:A3 *193:14 1.86809e-06
30 *481:A2 grant[52] 8.90513e-06
31 *481:A2 *193:30 0
32 *491:B1 *193:30 6.20838e-05
33 *492:A *193:14 0
34 *492:B *193:14 0
35 *492:C1 *193:14 0
36 *492:C2 *193:20 0
37 *55:6 *193:30 0.000134203
38 *56:8 *193:30 5.19107e-05
39 *66:10 *193:30 1.86909e-05
40 *66:23 *193:30 4.83974e-05
41 *66:25 *193:30 1.76665e-06
42 *118:8 *193:20 0
43 *149:12 *193:20 1.58752e-05
44 *150:35 *193:30 1.91726e-05
45 *162:12 grant[52] 3.0672e-05
46 *162:12 *193:30 1.80259e-05
47 *180:20 *193:14 0
48 *189:39 grant[52] 0.000121092
*RES
1 *428:ZN *193:14 46.1072 
2 *193:14 *193:20 45.5357 
3 *193:20 *193:30 46.2857 
4 *193:30 *193:36 12.2857 
5 *193:36 grant[52] 48.5357 
*END

*D_NET *194 0.0046328
*CONN
*P grant[53] O
*I *439:ZN O *D AND2_X1
*CAP
1 grant[53] 9.70504e-06
2 *439:ZN 0.000208543
3 *194:18 0.0015531
4 *194:16 0.0015434
5 *194:14 0.000208543
6 grant[53] grant[54] 2.05033e-06
7 grant[53] *231:9 3.13034e-06
8 grant[53] *254:7 2.60945e-06
9 *194:14 *299:A2 7.5597e-05
10 *194:14 *456:A3 1.56073e-06
11 *194:14 *200:29 2.0776e-05
12 *194:14 *267:29 0.000334844
13 *194:14 *268:9 5.82001e-06
14 *194:14 *269:72 1.76744e-05
15 *194:18 *242:13 0.000242652
16 *448:A2 *194:14 9.73377e-06
17 *449:A2 *194:14 1.39834e-05
18 *19:12 *194:14 1.11357e-05
19 *96:6 *194:14 1.39839e-06
20 *101:56 *194:14 4.45767e-06
21 *111:10 *194:14 0.000362085
*RES
1 *439:ZN *194:14 48.25 
2 *194:14 *194:16 5 
3 *194:16 *194:18 58.59 
4 *194:18 grant[53] 11.0714 
*END

*D_NET *195 0.00387444
*CONN
*P grant[54] O
*I *441:ZN O *D AND3_X1
*CAP
1 grant[54] 0.000300816
2 *441:ZN 4.04351e-05
3 *195:18 0.000513432
4 *195:12 0.000730949
5 *195:10 0.000558768
6 grant[54] grant[55] 5.17e-05
7 grant[54] grant[6] 0.000230363
8 grant[54] index[2] 9.07104e-05
9 grant[54] *207:26 3.28393e-05
10 grant[54] *254:7 2.33081e-05
11 *195:10 *203:18 2.0659e-05
12 *195:12 *467:A1 2.37137e-05
13 *195:12 *201:21 9.63079e-05
14 *195:12 *217:15 0
15 *195:18 *201:21 3.07713e-05
16 grant[2] *195:18 0.000219652
17 grant[31] *195:12 4.96151e-05
18 grant[31] *195:18 0.00043927
19 grant[32] *195:12 2.93813e-05
20 grant[53] grant[54] 2.05033e-06
21 *330:A2 *195:12 0
22 *468:A1 *195:12 0
23 *468:A2 *195:12 2.51392e-05
24 *468:A3 *195:12 1.62116e-05
25 *468:A4 *195:12 2.04239e-05
26 *148:12 *195:12 0.000239528
27 *166:14 *195:18 3.47215e-05
28 *178:27 *195:12 0
29 *180:20 *195:12 0
30 *193:14 *195:12 5.36697e-05
*RES
1 *441:ZN *195:10 20 
2 *195:10 *195:12 68.8572 
3 *195:12 *195:18 46.5714 
4 *195:18 grant[54] 42.75 
*END

*D_NET *196 0.0038922
*CONN
*P grant[55] O
*I *443:ZN O *D NOR2_X1
*CAP
1 grant[55] 0.000323974
2 *443:ZN 0.000166228
3 *196:22 0.000332687
4 *196:20 0.000300229
5 *196:18 0.00053755
6 *196:14 0.000412262
7 grant[55] grant[58] 4.50158e-05
8 grant[55] *216:13 0.000183657
9 grant[55] *227:17 0.000142531
10 grant[55] *242:13 2.60945e-06
11 grant[55] *254:7 0
12 *196:14 *212:12 9.08657e-05
13 *196:14 *213:18 0.000103457
14 *196:14 *263:35 4.57215e-05
15 *196:14 *266:27 3.92754e-05
16 *196:18 *495:A 3.28759e-06
17 *196:18 *222:9 2.47868e-05
18 *196:18 *279:17 1.45394e-06
19 *196:18 *279:19 2.26153e-06
20 *196:20 *200:31 8.99475e-05
21 *196:20 *216:13 0.000491433
22 *196:20 *227:17 7.01216e-05
23 grant[50] *196:20 0
24 grant[54] grant[55] 5.17e-05
25 *316:A2 *196:20 7.72792e-06
26 *338:A3 *196:18 6.73899e-05
27 *443:A1 *196:14 2.70833e-06
28 *482:A *196:14 2.39679e-06
29 *492:B *196:14 3.43575e-05
30 *31:44 *196:18 9.20459e-05
31 *34:8 *196:20 1.77043e-05
32 *147:12 *196:18 1.53158e-05
33 *180:20 *196:18 1.60184e-05
34 *183:31 *196:14 1.90574e-06
35 *183:31 *196:18 0.000173569
*RES
1 *443:ZN *196:14 36.2857 
2 *196:14 *196:18 37.8214 
3 *196:18 *196:20 50.3572 
4 *196:20 *196:22 0.928572 
5 *196:22 grant[55] 51.4286 
*END

*D_NET *197 0.00719633
*CONN
*P grant[56] O
*I *437:ZN O *D AND4_X1
*CAP
1 grant[56] 4.70267e-05
2 *437:ZN 1.6895e-05
3 *197:18 0.000704174
4 *197:16 0.000702897
5 *197:10 0.000469627
6 *197:8 0.000440771
7 grant[56] grant[61] 1.3917e-06
8 grant[56] *203:30 1.8031e-05
9 grant[56] *276:9 9.20479e-05
10 *197:8 *299:A3 2.14856e-06
11 *197:8 *199:18 0
12 *197:8 *203:16 0
13 *197:10 *294:A2 7.93012e-05
14 *197:10 *250:33 0.00107652
15 *197:10 *251:37 0.00053761
16 *197:10 *252:9 8.75903e-06
17 *197:10 *256:9 6.17085e-05
18 *197:16 *256:9 6.89308e-05
19 *197:16 *267:13 0.000158602
20 *197:18 *203:22 0.000180893
21 *197:18 *224:5 0.000599627
22 *197:18 *236:5 0.000735173
23 *197:18 *246:9 0.000228573
24 *197:18 *256:5 0
25 grant[47] grant[56] 1.48912e-05
26 grant[51] grant[56] 8.6104e-06
27 *428:A1 *197:10 0
28 *97:10 *197:10 4.177e-06
29 *97:27 *197:10 5.51369e-06
30 *101:50 *197:8 2.16072e-07
31 *101:50 *197:10 1.459e-05
32 *112:12 *197:10 5.49389e-05
33 *186:18 *197:10 0.000349146
34 *187:23 *197:10 8.87474e-05
35 *187:23 *197:16 3.51823e-06
36 *187:27 *197:18 0.000421276
*RES
1 *437:ZN *197:8 11.75 
2 *197:8 *197:10 88.7143 
3 *197:10 *197:16 15.25 
4 *197:16 *197:18 131.25 
5 *197:18 grant[56] 17.0357 
*END

*D_NET *198 0.00603369
*CONN
*P grant[57] O
*I *456:A2 I *D OR4_X1
*I *446:ZN O *D AND3_X1
*CAP
1 grant[57] 0.000996364
2 *456:A2 7.74917e-06
3 *446:ZN 2.75591e-05
4 *198:16 0.0012362
5 *198:10 0.000673001
6 *198:8 0.000468476
7 grant[57] index[0] 0.000261154
8 grant[57] *262:5 0
9 *456:A2 *456:A3 2.39679e-06
10 *456:A2 *203:16 4.32144e-07
11 *198:8 *456:A3 1.4221e-05
12 *198:10 *412:A1 2.38026e-05
13 *198:10 *267:17 5.32476e-06
14 *198:10 *269:47 0.000122344
15 *198:16 *412:A1 2.15765e-06
16 *198:16 *414:A1 3.07753e-05
17 *198:16 *267:17 4.60245e-05
18 grant[44] grant[57] 0.000583393
19 *412:A2 *198:16 1.2453e-05
20 *414:A2 *198:16 4.18985e-05
21 *422:A3 *198:10 6.78899e-05
22 *437:A4 *456:A2 4.32144e-07
23 *449:A2 *198:8 3.8736e-05
24 *456:A1 *456:A2 8.43215e-07
25 *471:A *198:8 3.66089e-05
26 *471:A *198:10 0.000207505
27 *472:C2 *198:10 3.09028e-05
28 *476:C1 *198:10 0.000336894
29 *19:23 *198:10 0.000192551
30 *19:25 *198:10 0.000101586
31 *87:8 *198:16 6.73899e-05
32 *88:8 *198:16 6.76399e-05
33 *101:56 *198:8 5.46432e-05
34 *102:14 *198:8 5.46453e-05
35 *111:10 *198:8 5.39659e-06
36 *111:10 *198:10 8.36173e-05
37 *126:10 *198:10 0
38 *181:12 *198:10 7.89979e-06
39 *182:16 *198:16 0.000122781
*RES
1 *446:ZN *198:8 16.3571 
2 *198:8 *198:10 71.3215 
3 *198:10 *198:16 42.1429 
4 *198:16 grant[57] 141.036 
5 *198:8 *456:A2 10.75 
*END

*D_NET *199 0.00372279
*CONN
*P grant[58] O
*I *448:ZN O *D NOR3_X1
*CAP
1 grant[58] 0.000253467
2 *448:ZN 0.000203421
3 *199:20 0.000909083
4 *199:18 0.000859037
5 grant[58] grant[59] 9.81652e-05
6 grant[58] *227:15 0.000215669
7 grant[58] *242:13 2.05033e-06
8 grant[58] *247:9 0
9 *199:18 *436:A2 0
10 *199:18 *448:A1 1.38841e-05
11 *199:18 *456:A3 2.77917e-07
12 *199:18 *200:10 7.72537e-06
13 *199:18 *200:29 1.48579e-05
14 *199:18 *270:38 1.26374e-05
15 *199:20 *283:A1 0
16 *199:20 *283:A3 0
17 *199:20 *238:5 0.00033198
18 *199:20 *238:13 0.000147237
19 *199:20 *270:5 0.000106583
20 *199:20 *279:17 7.03695e-05
21 grant[48] *199:20 0.000102884
22 grant[55] grant[58] 4.50158e-05
23 *320:A2 *199:20 1.91498e-06
24 *326:A1 *199:20 1.60038e-06
25 *326:A4 *199:20 5.17833e-05
26 *448:A2 *199:18 4.68638e-06
27 *448:A3 *199:18 7.19036e-06
28 *449:A2 *199:18 4.12459e-06
29 *36:8 *199:20 5.97731e-05
30 *36:15 *199:20 0.000169374
31 *188:16 *199:18 2.67779e-05
32 *188:16 *199:20 1.21774e-06
33 *197:8 *199:18 0
*RES
1 *448:ZN *199:18 39.3214 
2 *199:18 *199:20 101.893 
3 *199:20 grant[58] 44.1786 
*END

*D_NET *200 0.00357611
*CONN
*P grant[59] O
*I *456:A3 I *D OR4_X1
*I *449:ZN O *D AND2_X1
*CAP
1 grant[59] 0.000368315
2 *456:A3 6.49386e-05
3 *449:ZN 1.87279e-05
4 *200:41 0.000603753
5 *200:31 0.00077797
6 *200:29 0.000654475
7 *200:10 0.000195609
8 grant[59] grant[62] 0
9 grant[59] valid 5.21493e-05
10 grant[59] *227:17 6.90078e-05
11 grant[59] *240:7 8.60773e-06
12 grant[59] *280:16 0
13 *456:A3 *436:A2 0
14 *456:A3 *456:A4 2.44308e-05
15 *200:10 *436:A1 7.11918e-06
16 *200:29 *436:A2 0
17 *200:31 *313:A3 5.42636e-05
18 *200:31 *227:17 1.04788e-05
19 *200:31 *280:8 0
20 *200:41 *227:17 8.08e-05
21 *200:41 *238:26 2.3767e-06
22 grant[50] *200:31 0
23 grant[58] grant[59] 9.81652e-05
24 *314:A2 *200:31 0
25 *316:A2 *200:31 7.72792e-06
26 *317:A1 *200:41 4.2884e-05
27 *317:A2 *200:41 0
28 *448:A2 *200:29 1.87085e-05
29 *448:A3 *200:10 4.87096e-06
30 *449:A2 *456:A3 8.56664e-06
31 *449:A2 *200:10 2.39679e-06
32 *456:A1 *456:A3 1.18232e-06
33 *456:A2 *456:A3 2.39679e-06
34 *471:A *456:A3 2.94455e-05
35 *33:8 *200:41 4.5965e-06
36 *102:14 *456:A3 5.19786e-05
37 *157:8 *200:41 9.17115e-05
38 *168:6 grant[59] 5.53965e-05
39 *168:6 *200:41 1.36876e-05
40 *194:14 *456:A3 1.56073e-06
41 *194:14 *200:29 2.0776e-05
42 *196:20 *200:31 8.99475e-05
43 *198:8 *456:A3 1.4221e-05
44 *199:18 *456:A3 2.77917e-07
45 *199:18 *200:10 7.72537e-06
46 *199:18 *200:29 1.48579e-05
*RES
1 *449:ZN *200:10 12.6786 
2 *200:10 *456:A3 19.4643 
3 *200:10 *200:29 18.1429 
4 *200:29 *200:31 61.25 
5 *200:31 *200:41 43.75 
6 *200:41 grant[59] 51.4286 
*END

*D_NET *201 0.00292135
*CONN
*P grant[5] O
*I *467:A1 I *D NOR4_X1
*I *327:ZN O *D AND3_X2
*CAP
1 grant[5] 0.000323448
2 *467:A1 1.23238e-05
3 *327:ZN 0.00014855
4 *201:25 0.00064059
5 *201:21 0.000393005
6 *201:10 0.000236736
7 grant[5] grant[63] 2.05033e-06
8 grant[5] grant[9] 4.15369e-06
9 *201:10 *282:A3 1.10565e-06
10 *201:10 *282:A4 2.41311e-05
11 *201:10 *325:A1 4.97348e-06
12 *201:10 *329:A2 2.00032e-05
13 *201:10 *210:10 1.67708e-06
14 *201:10 *260:13 1.13438e-05
15 *201:10 *271:25 0
16 *201:25 *226:9 0
17 *201:25 *228:9 0
18 *201:25 *230:15 5.28224e-05
19 *201:25 *234:17 6.41004e-05
20 grant[21] grant[5] 9.95691e-05
21 grant[3] grant[5] 0
22 *326:A1 *201:10 1.11168e-06
23 *467:A2 *467:A1 4.12459e-06
24 *481:A1 *201:25 2.0679e-05
25 *157:10 *201:10 0
26 *158:10 *201:25 0.000167764
27 *159:23 *201:25 0
28 *162:12 grant[5] 0.000234317
29 *164:12 grant[5] 1.87418e-05
30 *164:12 *201:25 9.47184e-05
31 *166:14 *467:A1 1.32348e-05
32 *166:14 *201:21 0.000167334
33 *170:25 *201:10 7.94852e-06
34 *195:12 *467:A1 2.37137e-05
35 *195:12 *201:21 9.63079e-05
36 *195:18 *201:21 3.07713e-05
*RES
1 *327:ZN *201:10 30.1786 
2 *201:10 *467:A1 7.25 
3 *201:10 *201:21 20.75 
4 *201:21 *201:25 45.2857 
5 *201:25 grant[5] 44.5357 
*END

*D_NET *202 0.00537266
*CONN
*P grant[60] O
*I *445:ZN O *D NOR4_X1
*CAP
1 grant[60] 0.00109875
2 *445:ZN 0
3 *202:10 0.00109875
4 *202:8 0.000956534
5 *202:6 0.000956534
6 grant[60] *255:5 0.000471352
7 grant[60] *262:5 0
8 *202:8 *417:A1 0
9 *202:8 *274:17 6.63834e-05
10 grant[38] grant[60] 0.000588068
11 grant[42] grant[60] 0.000113951
12 *419:A4 *202:8 0
13 *453:A2 *202:8 2.2331e-05
14 *92:8 *202:8 0
*RES
1 *445:ZN *202:6 10 
2 *202:6 *202:8 112.893 
3 *202:8 *202:10 5 
4 *202:10 grant[60] 167.536 
*END

*D_NET *203 0.00605556
*CONN
*P grant[61] O
*I *456:A4 I *D OR4_X1
*I *451:ZN O *D NOR3_X1
*CAP
1 grant[61] 1.14691e-05
2 *456:A4 2.45446e-05
3 *451:ZN 9.4847e-05
4 *203:30 0.000288284
5 *203:28 0.000309862
6 *203:22 0.000393017
7 *203:20 0.00035997
8 *203:18 0.000667011
9 *203:16 0.000887843
10 *203:8 0.000340224
11 grant[61] index[3] 2.60945e-06
12 *203:8 *436:A1 0
13 *203:16 *437:A2 3.51992e-06
14 *203:16 *250:31 0.000170263
15 *203:16 *273:45 1.65449e-05
16 *203:18 *292:A3 1.96924e-05
17 *203:18 *214:8 0
18 *203:18 *246:13 3.49085e-06
19 *203:18 *246:24 1.39755e-05
20 *203:18 *248:31 5.10109e-05
21 *203:18 *257:33 0.000191848
22 *203:18 *269:39 7.06488e-06
23 *203:22 index[3] 0.000481852
24 *203:22 *393:A2 3.51536e-06
25 *203:22 *213:30 5.3165e-05
26 *203:22 *224:5 5.65794e-05
27 *203:28 *232:9 9.73377e-06
28 *203:30 index[3] 7.16188e-07
29 *203:30 *241:13 0.000193258
30 grant[51] *203:30 2.52487e-05
31 grant[56] grant[61] 1.3917e-06
32 grant[56] *203:30 1.8031e-05
33 *393:A4 *203:18 1.41532e-05
34 *393:A4 *203:22 0
35 *437:A4 *456:A4 2.39679e-06
36 *437:A4 *203:16 0
37 *441:A1 *203:18 4.177e-06
38 *443:A2 *203:18 9.52324e-06
39 *456:A1 *456:A4 3.23723e-07
40 *456:A1 *203:8 5.1242e-05
41 *456:A1 *203:16 1.26998e-05
42 *456:A2 *203:16 4.32144e-07
43 *456:A3 *456:A4 2.44308e-05
44 *458:A3 *203:18 9.49976e-06
45 *471:A *456:A4 4.44127e-06
46 *471:A *203:16 1.29373e-05
47 *486:A *203:18 2.36789e-05
48 *486:B1 *203:18 3.31114e-05
49 *12:21 *203:18 1.3143e-06
50 *16:74 *203:8 7.40328e-06
51 *22:16 *203:18 2.21212e-05
52 *22:33 *203:18 2.77008e-06
53 *78:12 *203:18 5.0635e-05
54 *78:16 *203:18 7.47756e-06
55 *78:18 *203:18 3.01743e-06
56 *96:32 *203:18 0
57 *101:50 *203:16 0
58 *101:56 *203:16 0
59 *102:10 *203:8 0
60 *173:10 *203:30 0.000292842
61 *175:18 *203:22 0
62 *176:19 *203:18 2.65637e-05
63 *184:8 *203:18 0.00015843
64 *187:27 *203:22 0.000263707
65 *187:35 *203:30 0.0001141
66 *192:14 *203:22 0
67 *192:30 *203:22 0
68 *195:10 *203:18 2.0659e-05
69 *197:8 *203:16 0
70 *197:18 *203:22 0.000180893
*RES
1 *451:ZN *203:8 22.25 
2 *203:8 *203:16 37.0357 
3 *203:16 *203:18 91.1786 
4 *203:18 *203:20 5 
5 *203:20 *203:22 67.25 
6 *203:22 *203:28 12.9643 
7 *203:28 *203:30 51.25 
8 *203:30 grant[61] 1.46429 
9 *203:8 *456:A4 12.8571 
*END

*D_NET *204 0.00488136
*CONN
*P grant[62] O
*I *453:ZN O *D NOR2_X1
*CAP
1 grant[62] 0.000158589
2 *453:ZN 7.07197e-06
3 *204:18 0.0011183
4 *204:16 0.000988435
5 *204:12 0.000314274
6 *204:8 0.000292619
7 grant[62] grant[6] 5.33891e-05
8 grant[62] valid 4.95575e-05
9 grant[62] *240:7 3.23723e-07
10 grant[62] *274:11 4.48581e-06
11 grant[62] *280:16 1.04874e-05
12 *204:12 *298:A1 1.27467e-05
13 *204:12 *435:A2 9.05228e-06
14 *204:12 *272:26 5.10087e-06
15 *204:12 *273:55 4.38265e-05
16 *204:12 *274:17 0.000139949
17 *204:12 *275:17 0
18 *204:16 *274:13 0
19 *204:18 valid 0
20 *204:18 *313:A3 7.19036e-06
21 *204:18 *252:5 0.000117808
22 *204:18 *274:13 0
23 *204:18 *280:8 7.16188e-07
24 *204:18 *280:12 0.000162206
25 *204:18 *280:16 0.000329145
26 grant[59] grant[62] 0
27 *314:A2 *204:18 5.34051e-05
28 *448:A3 *204:12 0
29 *453:A1 *204:8 7.19036e-06
30 *16:17 *204:12 2.13573e-06
31 *16:28 *204:12 2.32709e-05
32 *16:37 *204:12 1.4293e-06
33 *17:10 *204:8 2.16072e-07
34 *17:10 *204:12 2.89018e-05
35 *17:32 *204:12 0.000120658
36 *17:43 *204:12 5.56848e-05
37 *17:58 *204:12 2.89018e-05
38 *18:12 *204:12 0
39 *146:24 grant[62] 2.38392e-05
40 *146:24 *204:18 0.000710455
*RES
1 *453:ZN *204:8 10.75 
2 *204:8 *204:12 48.6786 
3 *204:12 *204:16 3 
4 *204:16 *204:18 142.75 
5 *204:18 grant[62] 22.5 
*END

*D_NET *205 0.00549621
*CONN
*P grant[63] O
*I *454:Z O *D CLKBUF_X1
*CAP
1 grant[63] 8.74048e-06
2 *454:Z 0.000119374
3 *205:12 0.0019418
4 *205:10 0.00205243
5 grant[63] grant[9] 2.60945e-06
6 grant[63] *276:9 9.83475e-07
7 *205:10 *295:A3 1.38678e-05
8 *205:10 *295:A4 2.26306e-06
9 grant[5] grant[63] 2.05033e-06
10 *27:14 *205:12 0.000119368
11 *92:27 *205:10 1.91119e-06
12 *179:24 *205:12 9.66678e-07
13 *181:14 *205:12 0
14 *185:50 *205:12 0
15 *188:10 *205:10 0.000506298
16 *189:37 *205:12 9.187e-05
17 *191:10 *205:10 0.000631679
*RES
1 *454:Z *205:10 48.3572 
2 *205:10 *205:12 67.2 
3 *205:12 grant[63] 10.9286 
*END

*D_NET *206 0.00236589
*CONN
*P grant[6] O
*I *329:ZN O *D AND3_X1
*CAP
1 grant[6] 0.000186969
2 *329:ZN 0
3 *206:6 0.00056284
4 *206:4 0.000375871
5 grant[6] grant[7] 1.3917e-06
6 grant[6] *207:26 0.000432865
7 *206:6 *325:A1 4.32144e-07
8 *206:6 *326:A2 1.68643e-06
9 *206:6 *329:A2 4.48497e-05
10 *206:6 *220:7 4.61864e-05
11 *206:6 *270:5 0.000221466
12 *206:6 *271:17 3.26982e-05
13 *206:6 *276:17 0
14 *206:6 *276:21 0
15 grant[54] grant[6] 0.000230363
16 grant[62] grant[6] 5.33891e-05
17 *326:A1 *206:6 4.02344e-05
18 *326:A4 *206:6 6.06412e-06
19 *40:6 *206:6 7.34989e-06
20 *146:24 grant[6] 0.000121238
*RES
1 *329:ZN *206:4 5 
2 *206:4 *206:6 53.75 
3 *206:6 grant[6] 44.8572 
*END

*D_NET *207 0.00309173
*CONN
*P grant[7] O
*I *331:ZN O *D NOR2_X1
*CAP
1 grant[7] 6.51541e-05
2 *331:ZN 6.95335e-05
3 *207:26 0.000248412
4 *207:20 0.000543797
5 *207:18 0.000430073
6 grant[7] *252:5 5.50756e-05
7 *207:18 *208:12 1.66752e-06
8 *207:18 *258:13 2.5758e-05
9 *207:20 *282:A3 2.52965e-06
10 *207:20 *282:A4 4.32144e-07
11 *207:20 *250:11 0.000430215
12 *207:20 *250:19 2.00754e-05
13 *207:20 *271:25 6.06647e-05
14 *207:20 *276:17 0.000208724
15 *207:26 *216:11 0.00023195
16 grant[54] *207:26 3.28393e-05
17 grant[6] grant[7] 1.3917e-06
18 grant[6] *207:26 0.000432865
19 *465:A1 *207:18 8.37704e-06
20 *466:A4 *207:18 8.89405e-06
21 *484:A1 *207:20 3.91883e-05
22 *2:8 *207:20 9.78014e-06
23 *41:14 *207:20 3.81282e-05
24 *146:24 grant[7] 0.000126208
25 *178:33 *207:20 0
*RES
1 *331:ZN *207:18 28.7471 
2 *207:18 *207:20 62.75 
3 *207:20 *207:26 39.4286 
4 *207:26 grant[7] 12.0357 
*END

*D_NET *208 0.00348088
*CONN
*P grant[8] O
*I *496:ZN O *D AND4_X1
*CAP
1 grant[8] 0.000462129
2 *496:ZN 0.000146502
3 *208:12 0.00065222
4 *208:8 0.000336593
5 grant[8] index[5] 1.18273e-05
6 grant[8] *211:8 0.000472595
7 grant[8] *263:17 0.000446849
8 *208:8 *283:A3 3.02677e-05
9 *208:8 *217:34 8.2465e-06
10 *208:8 *218:28 5.11118e-06
11 *208:8 *278:33 0
12 *208:8 *279:17 7.66449e-06
13 grant[18] grant[8] 1.3917e-06
14 grant[20] grant[8] 0.000170585
15 *312:A3 *208:8 0
16 *320:A1 *208:8 7.19036e-06
17 *320:A2 *208:8 2.77304e-05
18 *321:A1 *208:8 6.08235e-06
19 *338:A1 *208:8 1.80284e-05
20 *466:A4 *208:12 9.57289e-06
21 *468:A3 *208:12 3.57014e-05
22 *483:A grant[8] 4.13686e-05
23 *484:A1 *208:8 4.30918e-06
24 *484:A2 *208:8 3.31276e-05
25 *484:B2 *208:12 7.4751e-06
26 *485:A1 grant[8] 8.43215e-07
27 *485:A3 *208:12 0.000455298
28 *3:12 *208:8 0
29 *32:6 *208:8 0
30 *32:37 *208:8 1.87392e-05
31 *36:15 *208:8 0
32 *135:14 grant[8] 6.17613e-05
33 *179:8 *208:12 0
34 *207:18 *208:12 1.66752e-06
*RES
1 *496:ZN *208:8 29.25 
2 *208:8 *208:12 31.7143 
3 *208:12 grant[8] 81.0357 
*END

*D_NET *209 0.00487395
*CONN
*P grant[9] O
*I *464:A1 I *D OR2_X1
*I *336:ZN O *D AND3_X1
*CAP
1 grant[9] 5.73627e-05
2 *464:A1 0
3 *336:ZN 0.000123444
4 *209:39 0.000328105
5 *209:37 0.000295595
6 *209:33 0.000374109
7 *209:27 0.000571774
8 *209:16 0.000345963
9 grant[9] *276:9 7.93012e-05
10 *209:16 *336:A1 4.29713e-06
11 *209:16 *212:16 9.37382e-06
12 *209:16 *217:21 2.39679e-06
13 *209:16 *222:9 0.000280333
14 *209:16 *266:27 6.48216e-07
15 *209:27 *217:21 1.6043e-05
16 *209:27 *218:13 0.000274153
17 *209:33 *218:9 0
18 *209:33 *221:27 0.000133768
19 *209:33 *234:37 7.77781e-06
20 *209:37 *221:27 2.76156e-05
21 *209:37 *234:27 6.48216e-07
22 *209:37 *234:37 2.55029e-06
23 *209:39 *221:9 0.000525372
24 *209:39 *225:9 0.000130528
25 grant[3] grant[9] 1.34787e-05
26 grant[5] grant[9] 4.15369e-06
27 grant[63] grant[9] 2.60945e-06
28 *353:A2 *209:33 0
29 *375:A2 *209:33 7.72537e-06
30 *384:A2 *209:33 3.65322e-06
31 *464:A2 *209:16 1.74934e-05
32 *464:A2 *209:27 2.39679e-06
33 *466:A3 *209:27 1.04717e-05
34 *492:C1 *209:16 8.43215e-07
35 *3:12 *209:16 3.42532e-05
36 *31:8 *209:27 0.000695229
37 *31:19 *209:27 7.77137e-05
38 *31:40 *209:16 1.91798e-05
39 *43:21 *209:33 0
40 *70:6 *209:33 8.59425e-06
41 *70:10 *209:33 2.75109e-05
42 *175:30 *209:33 3.80995e-05
43 *179:24 *209:33 3.85172e-05
44 *183:31 *209:16 0.000280873
45 *193:14 *209:16 0
*RES
1 *336:ZN *209:16 38.6072 
2 *209:16 *464:A1 5 
3 *209:16 *209:27 48.3929 
4 *209:27 *209:33 47.6786 
5 *209:33 *209:37 3.67857 
6 *209:37 *209:39 48.25 
7 *209:39 grant[9] 17.3571 
*END

*D_NET *210 0.00419827
*CONN
*P index[0] O
*I *468:ZN O *D NAND4_X1
*CAP
1 index[0] 0.000302002
2 *468:ZN 5.34194e-05
3 *210:20 0.000450677
4 *210:10 0.000977249
5 *210:8 0.000881992
6 index[0] *232:5 0.00025703
7 index[0] *262:5 2.55331e-06
8 *210:10 *223:9 0
9 *210:10 *245:19 1.78996e-06
10 *210:10 *260:13 1.52083e-06
11 *210:10 *266:9 0
12 *210:20 *232:9 8.66657e-05
13 *210:20 *246:9 0.0001001
14 *210:20 *256:5 4.37483e-05
15 *210:20 *266:9 0
16 grant[32] *210:8 0.000132963
17 grant[57] index[0] 0.000261154
18 *310:A2 *210:10 0
19 *310:A3 *210:10 0
20 *389:A1 *210:10 0
21 *29:10 *210:10 3.30355e-05
22 *29:14 *210:10 0.000287037
23 *153:8 *210:10 0.000106123
24 *166:10 *210:10 1.61002e-06
25 *170:14 *210:10 5.37422e-05
26 *170:25 *210:10 3.38207e-05
27 *176:23 *210:8 3.65322e-06
28 *178:27 *210:8 8.26038e-06
29 *180:28 *210:8 0.000116442
30 *201:10 *210:10 1.67708e-06
*RES
1 *468:ZN *210:8 22.25 
2 *210:8 *210:10 91.8572 
3 *210:10 *210:20 36.7143 
4 *210:20 index[0] 54.0357 
*END

*D_NET *211 0.00501897
*CONN
*P index[1] O
*I *485:ZN O *D OR3_X1
*CAP
1 index[1] 0.000273071
2 *485:ZN 6.51809e-06
3 *211:12 0.00121871
4 *211:10 0.00094564
5 *211:8 0.000251479
6 *211:6 0.000257997
7 index[1] *267:5 0.000177405
8 *211:8 *309:A4 2.37117e-05
9 *211:8 *212:18 0
10 *211:8 *230:33 4.30918e-06
11 *211:8 *231:13 3.23723e-07
12 *211:8 *266:23 0.000177484
13 *211:12 *269:13 0
14 *211:12 *273:13 0
15 *211:12 *277:9 0.00102012
16 grant[20] *211:8 9.37037e-05
17 grant[8] *211:8 0.000472595
18 *485:A1 *211:8 1.89851e-06
19 *485:A2 *211:6 7.89897e-06
20 *485:A2 *211:8 6.0887e-06
21 *487:B1 *211:8 4.87096e-06
22 *487:B2 *211:8 6.11946e-05
23 *29:10 *211:8 1.3952e-05
24 *159:23 *211:12 0
*RES
1 *485:ZN *211:6 5.92857 
2 *211:6 *211:8 46.75 
3 *211:8 *211:10 5 
4 *211:10 *211:12 101.357 
5 *211:12 index[1] 41.5357 
*END

*D_NET *212 0.00358932
*CONN
*P index[2] O
*I *489:ZN O *D OR3_X1
*CAP
1 index[2] 0.000204511
2 *489:ZN 7.3015e-05
3 *212:18 0.000522184
4 *212:16 0.000516368
5 *212:12 0.00027171
6 index[2] *258:11 1.01096e-05
7 index[2] *260:7 1.3917e-06
8 *212:12 *222:9 7.9845e-05
9 *212:12 *244:19 7.93012e-05
10 *212:12 *263:35 0.000121293
11 *212:16 *215:32 2.30504e-05
12 *212:16 *215:42 1.60038e-06
13 *212:16 *217:15 5.22789e-05
14 *212:16 *217:21 0.000207792
15 *212:16 *266:23 2.54807e-06
16 *212:16 *266:27 0.000227326
17 *212:18 *309:A2 7.19036e-06
18 *212:18 *309:A3 1.87369e-06
19 *212:18 *350:A 2.23067e-05
20 *212:18 *215:42 1.89851e-06
21 *212:18 *217:15 1.93904e-05
22 *212:18 *229:13 2.10852e-05
23 *212:18 *229:28 1.87369e-06
24 *212:18 *230:5 0.000159733
25 *212:18 *231:13 0.000381303
26 *212:18 *231:19 4.52928e-05
27 grant[39] index[2] 0
28 grant[54] index[2] 9.07104e-05
29 *354:A1 *212:18 1.23562e-06
30 *482:A *212:12 1.10576e-05
31 *487:A2 *212:16 5.10699e-05
32 *29:10 *212:18 4.15118e-05
33 *170:14 *212:18 2.90397e-05
34 *176:23 index[2] 0.000119279
35 *178:33 index[2] 8.89076e-05
36 *196:14 *212:12 9.08657e-05
37 *209:16 *212:16 9.37382e-06
38 *211:8 *212:18 0
*RES
1 *489:ZN *212:12 30.5714 
2 *212:12 *212:16 34.6786 
3 *212:16 *212:18 54.25 
4 *212:18 index[2] 35.3572 
*END

*D_NET *213 0.00536807
*CONN
*P index[3] O
*I *492:ZN O *D OAI211_X1
*CAP
1 index[3] 0.000439442
2 *492:ZN 0.00021452
3 *213:30 0.000494204
4 *213:20 0.000350256
5 *213:18 0.000510014
6 index[3] *224:5 0.000246823
7 *213:18 *286:A2 5.05238e-06
8 *213:18 *251:27 6.48738e-06
9 *213:20 *261:23 3.21842e-05
10 *213:30 *396:A1 1.27666e-06
11 grant[61] index[3] 2.60945e-06
12 *347:A1 *213:18 3.00035e-05
13 *396:A2 *213:30 3.63475e-06
14 *396:A3 *213:30 1.25189e-05
15 *461:A2 *213:20 7.47404e-05
16 *466:A3 *213:18 0
17 *474:B2 *213:20 0.00010608
18 *491:B2 *213:18 1.09957e-05
19 *491:B2 *213:20 0.000152077
20 *491:C2 *213:18 7.81488e-05
21 *492:B *213:18 6.32309e-05
22 *492:C1 *213:18 1.40196e-06
23 *493:A1 *213:20 3.02351e-05
24 *10:8 *213:20 4.24402e-05
25 *173:8 index[3] 7.16188e-07
26 *173:8 *213:30 1.21774e-06
27 *173:10 index[3] 2.24822e-06
28 *174:10 *213:20 0.000244941
29 *175:18 *213:30 0
30 *183:31 *213:18 0.000324672
31 *183:31 *213:20 0.000202963
32 *187:35 index[3] 0.00102419
33 *192:30 *213:20 1.85874e-05
34 *193:14 *213:18 9.62051e-07
35 *196:14 *213:18 0.000103457
36 *203:22 index[3] 0.000481852
37 *203:22 *213:30 5.3165e-05
38 *203:30 index[3] 7.16188e-07
*RES
1 *492:ZN *213:18 45.9107 
2 *213:18 *213:20 46.7322 
3 *213:20 *213:30 13.3571 
4 *213:30 index[3] 95.5358 
*END

*D_NET *214 0.00467967
*CONN
*P index[4] O
*I *494:ZN O *D NAND2_X1
*CAP
1 index[4] 0.00094013
2 *494:ZN 0
3 *214:10 0.00094013
4 *214:8 0.000663291
5 *214:6 0.000663291
6 index[4] valid 1.02995e-05
7 index[4] *216:11 5.90091e-05
8 index[4] *222:5 0.000233678
9 index[4] *272:5 0
10 index[4] *274:13 0
11 *489:A1 *214:8 1.41532e-05
12 *83:28 *214:8 0.000203846
13 *176:19 *214:8 2.3767e-06
14 *178:21 *214:8 0.000949462
15 *203:18 *214:8 0
*RES
1 *494:ZN *214:6 10 
2 *214:6 *214:8 91.1786 
3 *214:8 *214:10 5 
4 *214:10 index[4] 113.536 
*END

*D_NET *215 0.00257166
*CONN
*P index[5] O
*I *389:A2 I *D NOR2_X1
*I *487:A1 I *D OAI22_X1
*I *478:C1 I *D OAI211_X1
*I *388:ZN O *D INV_X1
*CAP
1 index[5] 0.000419849
2 *389:A2 0
3 *487:A1 1.01585e-05
4 *478:C1 7.32943e-05
5 *388:ZN 0
6 *215:42 0.000505099
7 *215:32 0.000156061
8 *215:21 0.000151526
9 *215:6 0.00014385
10 index[5] *373:A1 1.86809e-06
11 index[5] *234:9 8.49419e-06
12 index[5] *263:17 8.11413e-05
13 *478:C1 *306:A1 1.04526e-05
14 *478:C1 *248:17 1.24656e-05
15 *487:A1 *266:23 1.22877e-05
16 *215:32 *266:23 1.81436e-05
17 *215:42 *229:9 5.20238e-07
18 *215:42 *266:9 2.63004e-05
19 *215:42 *266:23 7.11436e-05
20 grant[18] index[5] 5.09536e-05
21 grant[8] index[5] 1.18273e-05
22 *373:A2 index[5] 1.28122e-06
23 *373:A3 index[5] 0
24 *478:A *478:C1 7.66479e-05
25 *478:C2 *478:C1 2.52965e-06
26 *487:A2 *487:A1 1.66491e-05
27 *487:A2 *215:21 5.0546e-06
28 *487:A2 *215:32 3.47275e-05
29 *26:26 *478:C1 1.79658e-05
30 *26:26 *215:21 9.92513e-06
31 *29:10 *215:42 2.30029e-05
32 *135:14 index[5] 4.93875e-05
33 *160:6 index[5] 0.000220259
34 *166:10 *215:42 3.0115e-05
35 *170:14 *215:42 1.26488e-05
36 *171:10 *478:C1 0.000107309
37 *171:10 *215:21 0.000172173
38 *212:16 *215:32 2.30504e-05
39 *212:16 *215:42 1.60038e-06
40 *212:18 *215:42 1.89851e-06
*RES
1 *388:ZN *215:6 10 
2 *215:6 *478:C1 22.9286 
3 *215:6 *215:21 14.75 
4 *215:21 *487:A1 6.625 
5 *215:21 *215:32 9.67858 
6 *215:32 *215:42 22.6786 
7 *215:42 index[5] 60.0357 
8 *215:32 *389:A2 5 
*END

*D_NET *216 0.0029502
*CONN
*P req[0] I
*I *281:A I *D INV_X1
*CAP
1 req[0] 0.000247424
2 *281:A 3.83889e-05
3 *216:13 0.000638319
4 *216:11 0.000847354
5 *281:A *222:9 6.60004e-06
6 *281:A *244:9 0.000119619
7 *216:11 *219:11 4.29855e-06
8 *216:11 *272:5 2.71381e-05
9 *216:13 *322:A1 2.26625e-06
10 *216:13 *254:7 4.31008e-05
11 grant[50] *216:13 0
12 grant[55] *216:13 0.000183657
13 index[4] *216:11 5.90091e-05
14 *322:A2 *216:13 0
15 *468:A1 *216:13 6.48216e-07
16 *38:8 *216:13 8.99598e-06
17 *196:20 *216:13 0.000491433
18 *207:26 *216:11 0.00023195
*RES
1 req[0] *216:11 41.7857 
2 *216:11 *216:13 84.25 
3 *216:13 *281:A 21.3571 
*END

*D_NET *217 0.00485581
*CONN
*P req[10] I
*I *338:A2 I *D AND3_X1
*I *283:A4 I *D NOR4_X1
*I *335:A2 I *D NOR2_X1
*CAP
1 req[10] 0.000241167
2 *338:A2 0
3 *283:A4 8.85841e-05
4 *335:A2 0
5 *217:34 0.000177499
6 *217:21 0.000297004
7 *217:15 0.000443756
8 *217:9 0.000503331
9 *217:5 0.000508832
10 *283:A4 *283:A2 3.65322e-06
11 *283:A4 *283:A3 5.36815e-06
12 *283:A4 *250:31 0
13 *283:A4 *279:17 7.40224e-05
14 *283:A4 *279:19 5.33077e-05
15 *217:5 *307:A3 1.32348e-05
16 *217:5 *221:7 1.3917e-06
17 *217:5 *221:9 0.000520219
18 *217:9 *307:A3 1.04526e-05
19 *217:9 *226:9 0.000120518
20 *217:9 *230:9 1.20936e-06
21 *217:9 *230:15 1.76506e-05
22 *217:9 *234:17 1.94646e-05
23 *217:9 *235:50 6.15068e-05
24 *217:15 *309:A2 1.3027e-05
25 *217:15 *350:A 4.28931e-05
26 *217:15 *369:A1 2.52965e-06
27 *217:15 *229:13 4.98267e-05
28 *217:15 *229:28 7.19036e-06
29 *217:34 *218:28 3.34324e-06
30 *217:34 *243:9 0
31 *217:34 *244:19 1.43637e-05
32 *217:34 *279:17 2.3899e-05
33 grant[3] *217:5 0.000221915
34 *338:A1 *283:A4 2.39679e-06
35 *338:A1 *217:34 3.57027e-05
36 *369:A2 *217:15 9.01846e-07
37 *466:A1 *217:15 2.37555e-05
38 *466:A1 *217:21 6.42887e-07
39 *466:A3 *217:21 5.50075e-05
40 *466:A4 *217:21 4.48497e-05
41 *467:A3 *217:15 0
42 *468:A4 *217:15 0
43 *481:A2 *217:9 3.94286e-05
44 *483:C1 *217:21 0.000236587
45 *3:12 *283:A4 1.32323e-05
46 *31:19 *217:21 1.87085e-05
47 *31:30 *217:21 7.7692e-05
48 *31:76 *217:21 1.79017e-05
49 *31:76 *217:34 1.88334e-06
50 *45:10 *217:21 2.28656e-05
51 *45:10 *217:34 8.56664e-06
52 *54:10 *217:9 1.18775e-05
53 *135:14 *217:9 0.000142445
54 *150:35 *217:9 0.000212154
55 *159:19 *217:15 0
56 *193:36 *217:9 4.18985e-05
57 *195:12 *217:15 0
58 *208:8 *217:34 8.2465e-06
59 *209:16 *217:21 2.39679e-06
60 *209:27 *217:21 1.6043e-05
61 *212:16 *217:15 5.22789e-05
62 *212:16 *217:21 0.000207792
63 *212:18 *217:15 1.93904e-05
*RES
1 req[10] *217:5 48.0357 
2 *217:5 *217:9 45.2857 
3 *217:9 *217:15 35.1786 
4 *217:15 *217:21 41.9643 
5 *217:21 *335:A2 10 
6 *217:21 *217:34 16.4286 
7 *217:34 *283:A4 26.3571 
8 *217:34 *338:A2 5 
*END

*D_NET *218 0.00489644
*CONN
*P req[11] I
*I *337:A I *D INV_X1
*I *283:A3 I *D NOR4_X1
*I *335:A1 I *D NOR2_X1
*I *339:A1 I *D NAND2_X1
*CAP
1 req[11] 1.14691e-05
2 *337:A 0
3 *283:A3 0.000123964
4 *335:A1 0
5 *339:A1 1.61733e-05
6 *218:35 0.000130315
7 *218:28 4.6577e-05
8 *218:13 0.000433814
9 *218:11 0.000377414
10 *218:9 0.000529648
11 *218:7 0.000541117
12 *283:A3 *283:A1 2.90397e-05
13 *283:A3 *283:A2 4.75556e-05
14 *283:A3 *250:31 0
15 *283:A3 *278:33 3.28137e-06
16 *218:7 *229:5 1.3917e-06
17 *218:7 *237:5 2.60945e-06
18 *218:9 *229:5 0.000615787
19 *218:9 *237:5 5.19897e-06
20 *218:9 *245:19 4.47286e-06
21 *218:9 *249:13 0.000870512
22 *218:13 *286:A2 1.59485e-05
23 *218:13 *334:A2 8.94795e-05
24 *218:13 *243:9 0.000349889
25 *218:28 *243:9 1.80327e-05
26 *218:28 *278:33 3.11167e-05
27 *283:A4 *283:A3 5.36815e-06
28 *338:A1 *283:A3 7.68739e-06
29 *353:A2 *218:9 8.26873e-05
30 *496:A1 *283:A3 0
31 *496:A3 *283:A3 2.04427e-05
32 *496:A3 *218:35 2.83871e-06
33 *3:12 *283:A3 0
34 *3:12 *339:A1 2.94562e-05
35 *4:20 *218:13 2.69044e-05
36 *11:51 *218:13 9.05228e-06
37 *31:8 *218:13 6.03486e-06
38 *31:19 *218:13 6.24292e-06
39 *31:30 *218:13 4.12036e-05
40 *31:34 *339:A1 1.87637e-06
41 *31:40 *339:A1 8.43215e-07
42 *31:76 *218:13 3.73179e-06
43 *31:76 *218:28 4.16195e-06
44 *45:10 *283:A3 2.61286e-06
45 *47:8 *339:A1 2.42443e-05
46 *151:20 *218:13 1.17711e-05
47 *175:30 *218:9 1.60038e-06
48 *199:20 *283:A3 0
49 *208:8 *283:A3 3.02677e-05
50 *208:8 *218:28 5.11118e-06
51 *209:27 *218:13 0.000274153
52 *209:33 *218:9 0
53 *217:34 *218:28 3.34324e-06
*RES
1 req[11] *218:7 1.46429 
2 *218:7 *218:9 93.75 
3 *218:9 *218:11 5 
4 *218:11 *218:13 59.9643 
5 *218:13 *339:A1 12.75 
6 *218:13 *218:28 10.7143 
7 *218:28 *335:A1 5 
8 *218:28 *218:35 0.928572 
9 *218:35 *283:A3 23.5 
10 *218:35 *337:A 5 
*END

*D_NET *219 0.00433953
*CONN
*P req[12] I
*I *334:A2 I *D AND4_X1
*I *285:A I *D INV_X1
*CAP
1 req[12] 1.21203e-05
2 *334:A2 8.41505e-05
3 *285:A 4.85172e-05
4 *219:19 0.000872797
5 *219:15 0.00184015
6 *219:11 0.00111214
7 *285:A *248:17 9.57492e-07
8 *285:A *251:27 9.45614e-06
9 *285:A *254:31 2.90002e-06
10 *334:A2 *243:9 8.94795e-05
11 *334:A2 *251:27 1.34564e-05
12 *334:A2 *254:31 4.43661e-06
13 *219:11 *231:9 1.50494e-05
14 *219:11 *272:5 3.73676e-06
15 grant[0] *219:11 1.448e-05
16 *334:A1 *334:A2 2.16072e-07
17 *344:A2 *334:A2 2.94773e-05
18 *347:A2 *285:A 0
19 *4:20 *334:A2 3.81274e-06
20 *6:12 *285:A 1.50494e-05
21 *6:27 *334:A2 2.39679e-06
22 *44:25 *285:A 1.25189e-05
23 *147:16 *219:19 4.2721e-05
24 *152:12 *285:A 1.57304e-05
25 *216:11 *219:11 4.29855e-06
26 *218:13 *334:A2 8.94795e-05
*RES
1 req[12] *219:11 11.8571 
2 *219:11 *219:15 43.11 
3 *219:15 *219:19 35.13 
4 *219:19 *285:A 18.84 
5 *219:19 *334:A2 24.4029 
*END

*D_NET *220 0.00375096
*CONN
*P req[13] I
*I *344:A1 I *D NAND2_X1
*I *284:A I *D INV_X1
*CAP
1 req[13] 0.000144545
2 *344:A1 1.8317e-05
3 *284:A 4.20123e-05
4 *220:21 0.000266469
5 *220:13 0.000587617
6 *220:11 0.000381477
7 *220:9 0.000469795
8 *220:7 0.000614339
9 *284:A *255:23 2.39679e-06
10 *344:A1 *243:9 3.78866e-06
11 *220:7 *270:5 2.36273e-05
12 *220:7 *276:17 4.57108e-05
13 *220:9 *227:15 0.000266971
14 *220:9 *247:9 0
15 *220:13 *235:13 1.28122e-06
16 *220:13 *235:19 3.83909e-06
17 *220:13 *235:50 1.60038e-06
18 *220:13 *254:15 0.000169507
19 *220:13 *271:9 6.96372e-05
20 *220:21 *221:31 4.89416e-06
21 *220:21 *236:13 8.43376e-06
22 *220:21 *236:19 7.77781e-06
23 *220:21 *254:31 2.34717e-05
24 grant[30] *220:13 1.6658e-05
25 grant[34] *220:13 4.57414e-05
26 grant[40] *220:7 1.76033e-05
27 grant[43] *220:7 2.60945e-06
28 *344:A2 *284:A 2.16072e-07
29 *344:A2 *220:21 1.83411e-06
30 *345:A4 *344:A1 5.35797e-05
31 *366:A1 *220:21 1.32858e-06
32 *366:A2 *220:21 3.98975e-07
33 *367:A3 *220:13 6.48216e-07
34 *367:A3 *220:21 6.33628e-05
35 *383:A2 *220:21 2.88159e-06
36 *384:A2 *220:21 0
37 *491:B1 *284:A 1.86508e-05
38 *491:B1 *220:21 1.21774e-06
39 *4:20 *284:A 1.18525e-05
40 *131:12 *220:21 0
41 *150:27 *220:21 1.27236e-05
42 *150:35 *220:13 0
43 *193:20 *344:A1 6.47589e-05
44 *193:30 *220:21 0.000231195
45 *206:6 *220:7 4.61864e-05
*RES
1 req[13] *220:7 26.0357 
2 *220:7 *220:9 45.7143 
3 *220:9 *220:11 5 
4 *220:11 *220:13 49.25 
5 *220:13 *220:21 37.9286 
6 *220:21 *284:A 9.75 
7 *220:21 *344:A1 18.6429 
*END

*D_NET *221 0.00418507
*CONN
*P req[14] I
*I *346:A I *D INV_X1
*I *286:A2 I *D NOR2_X1
*CAP
1 req[14] 1.14691e-05
2 *346:A 0
3 *286:A2 0.000160537
4 *221:33 0.000341228
5 *221:31 0.000374692
6 *221:27 0.000312848
7 *221:9 0.000339752
8 *221:7 0.000232375
9 *286:A2 *243:9 1.53761e-05
10 *286:A2 *251:27 0
11 *221:7 *225:7 2.60945e-06
12 *221:9 *307:A3 5.34233e-06
13 *221:9 *225:9 4.47286e-06
14 *221:9 *234:27 1.87418e-05
15 *221:27 *225:9 5.44419e-05
16 *221:27 *226:9 7.0096e-06
17 *221:27 *229:5 2.24822e-06
18 *221:27 *229:9 4.16464e-05
19 *221:31 *223:9 7.96464e-05
20 *221:31 *236:9 0.00020458
21 *221:31 *239:9 2.89317e-05
22 *221:31 *254:31 5.39412e-06
23 *221:33 *239:13 1.2553e-05
24 *348:A2 *286:A2 0
25 *367:A3 *221:31 1.04977e-05
26 *387:A3 *221:33 4.96483e-05
27 *389:A1 *221:33 3.19164e-07
28 *455:A1 *221:27 4.24402e-05
29 *478:A *221:33 0
30 *492:B *286:A2 1.73809e-06
31 *26:12 *221:31 2.62029e-05
32 *26:26 *221:33 1.32348e-05
33 *64:14 *221:31 0.000127527
34 *69:34 *286:A2 1.1315e-05
35 *69:34 *221:33 9.93133e-05
36 *110:12 *221:31 0.000131939
37 *151:20 *286:A2 8.61274e-06
38 *157:16 *221:27 1.39047e-05
39 *169:10 *221:31 5.10087e-06
40 *175:30 *221:27 2.35379e-05
41 *179:24 *221:27 0.000129582
42 *209:33 *221:27 0.000133768
43 *209:37 *221:27 2.76156e-05
44 *209:39 *221:9 0.000525372
45 *213:18 *286:A2 5.05238e-06
46 *217:5 *221:7 1.3917e-06
47 *217:5 *221:9 0.000520219
48 *218:13 *286:A2 1.59485e-05
49 *220:21 *221:31 4.89416e-06
*RES
1 req[14] *221:7 1.46429 
2 *221:7 *221:9 50.75 
3 *221:9 *221:27 47.5714 
4 *221:27 *221:31 35.7857 
5 *221:31 *221:33 23.75 
6 *221:33 *286:A2 31.7086 
7 *221:33 *346:A 5 
*END

*D_NET *222 0.00440565
*CONN
*P req[15] I
*I *286:A1 I *D NOR2_X1
*I *349:A1 I *D AND2_X1
*I *348:A1 I *D NOR3_X1
*CAP
1 req[15] 0.000565717
2 *286:A1 3.22826e-05
3 *349:A1 0
4 *348:A1 1.50803e-05
5 *222:15 6.4429e-05
6 *222:9 0.000492257
7 *222:7 0.000410626
8 *222:5 0.000565717
9 *222:5 valid 1.02995e-05
10 *222:5 *252:5 2.89355e-06
11 *222:5 *274:13 0.00107896
12 *222:9 *244:9 0
13 *222:9 *244:19 9.14182e-05
14 *222:15 *244:19 4.12796e-06
15 *222:15 *244:21 5.26383e-05
16 index[4] *222:5 0.000233678
17 *281:A *222:9 6.60004e-06
18 *338:A1 *222:9 1.45779e-05
19 *348:A2 *222:15 2.16072e-07
20 *349:A2 *222:15 2.39679e-06
21 *483:C2 *222:9 6.68482e-05
22 *488:A2 *286:A1 3.73618e-06
23 *488:A2 *222:15 2.71691e-06
24 *488:A3 *348:A1 0
25 *488:A3 *222:15 2.28245e-05
26 *489:A2 *286:A1 2.90404e-05
27 *492:C1 *222:9 4.16464e-05
28 *496:A1 *222:9 7.78359e-05
29 *6:8 *286:A1 1.04337e-05
30 *52:14 *222:15 3.51992e-06
31 *183:31 *222:9 9.53007e-05
32 *183:31 *222:15 2.28631e-05
33 *196:18 *222:9 2.47868e-05
34 *209:16 *222:9 0.000280333
35 *212:12 *222:9 7.9845e-05
*RES
1 req[15] *222:5 99.5358 
2 *222:5 *222:7 5 
3 *222:7 *222:9 56.5715 
4 *222:9 *222:15 11.8929 
5 *222:15 *348:A1 6.60714 
6 *222:15 *349:A1 5 
7 *222:9 *286:A1 14.3571 
*END

*D_NET *223 0.00480012
*CONN
*P req[16] I
*I *304:A I *D INV_X1
*I *343:A1 I *D AND3_X1
*CAP
1 req[16] 0.000330176
2 *304:A 5.23726e-06
3 *343:A1 5.83104e-05
4 *223:9 0.000932012
5 *223:7 0.000868464
6 *223:5 0.000330176
7 *304:A *245:19 7.72792e-06
8 *343:A1 *236:9 2.75475e-05
9 *343:A1 *245:19 7.82427e-06
10 *343:A1 *253:19 4.32144e-07
11 *343:A1 *257:19 1.25189e-05
12 *223:5 *226:5 3.08081e-06
13 *223:5 *272:5 0.000321491
14 *223:5 *275:13 0.00072558
15 *223:9 *326:A2 0
16 *223:9 *329:A2 5.11191e-06
17 *223:9 *236:9 2.64662e-05
18 *223:9 *239:9 0.000186629
19 *223:9 *245:19 1.24488e-05
20 *223:9 *250:19 0
21 *223:9 *270:15 0
22 *310:A1 *304:A 2.75346e-06
23 *310:A2 *343:A1 1.66016e-05
24 *310:A3 *304:A 8.43215e-07
25 *310:A3 *343:A1 3.02351e-05
26 *329:A1 *223:9 6.31462e-05
27 *389:A1 *223:9 0.00020446
28 *36:21 *223:9 8.22137e-05
29 *41:10 *223:9 2.88699e-05
30 *49:14 *343:A1 3.27669e-05
31 *110:12 *223:9 1.46651e-05
32 *148:22 *223:9 0.000382683
33 *210:10 *223:9 0
34 *221:31 *223:9 7.96464e-05
*RES
1 req[16] *223:5 67.0357 
2 *223:5 *223:7 5 
3 *223:7 *223:9 104.75 
4 *223:9 *343:A1 19.2857 
5 *223:9 *304:A 10.75 
*END

*D_NET *224 0.00192395
*CONN
*P req[17] I
*I *305:A1 I *D NOR3_X1
*I *357:A1 I *D NAND3_X1
*CAP
1 req[17] 0.000274104
2 *305:A1 1.6212e-05
3 *357:A1 0
4 *224:9 0.000146285
5 *224:5 0.000404177
6 *305:A1 *356:A 2.4656e-05
7 *305:A1 *225:25 3.02372e-05
8 *224:5 *236:5 8.69815e-06
9 *224:9 *356:A 5.54369e-05
10 *224:9 *232:9 0
11 *224:9 *266:9 1.59336e-05
12 index[3] *224:5 0.000246823
13 *157:16 *305:A1 1.04526e-05
14 *167:12 *305:A1 4.80268e-06
15 *167:12 *224:9 9.22998e-06
16 *175:30 *224:9 2.06992e-05
17 *197:18 *224:5 0.000599627
18 *203:22 *224:5 5.65794e-05
*RES
1 req[17] *224:5 56.5357 
2 *224:5 *224:9 19.5 
3 *224:9 *357:A1 10 
4 *224:9 *305:A1 12.9643 
*END

*D_NET *225 0.00245998
*CONN
*P req[18] I
*I *469:B1 I *D OAI21_X1
*I *359:A2 I *D AND3_X1
*I *305:A3 I *D NOR3_X1
*I *356:A I *D INV_X1
*CAP
1 req[18] 1.09704e-05
2 *469:B1 0
3 *359:A2 2.54544e-05
4 *305:A3 6.50469e-06
5 *356:A 2.58287e-05
6 *225:25 6.0501e-05
7 *225:23 9.24802e-05
8 *225:17 0.000106198
9 *225:9 0.000379131
10 *225:7 0.000322761
11 *305:A3 *305:A2 2.39679e-06
12 *305:A3 *278:15 7.19036e-06
13 *356:A *247:13 7.72537e-06
14 *359:A2 *265:19 4.12459e-06
15 *225:7 *229:5 1.3917e-06
16 *225:9 *229:5 0.000604952
17 *225:17 *229:9 6.32461e-06
18 *225:17 *257:19 5.33113e-06
19 *225:23 *226:44 6.48738e-06
20 *225:23 *257:19 7.19036e-06
21 *305:A1 *356:A 2.4656e-05
22 *305:A1 *225:25 3.02372e-05
23 *357:A2 *356:A 6.48216e-07
24 *359:A1 *359:A2 1.30565e-05
25 *359:A3 *359:A2 2.75346e-06
26 *359:A3 *225:17 1.72426e-05
27 *359:A3 *225:23 8.68448e-05
28 *359:A3 *225:25 4.7875e-06
29 *360:A2 *225:17 1.68643e-06
30 *49:21 *225:17 8.43215e-07
31 *49:21 *225:23 2.52965e-06
32 *157:16 *225:17 0.000218288
33 *157:16 *225:25 6.03129e-06
34 *175:30 *356:A 3.05895e-05
35 *175:30 *225:17 3.76044e-05
36 *175:30 *225:23 2.49907e-05
37 *175:30 *225:25 2.67548e-05
38 *209:39 *225:9 0.000130528
39 *221:7 *225:7 2.60945e-06
40 *221:9 *225:9 4.47286e-06
41 *221:27 *225:9 5.44419e-05
42 *224:9 *356:A 5.54369e-05
*RES
1 req[18] *225:7 1.46429 
2 *225:7 *225:9 55.75 
3 *225:9 *225:17 22.5357 
4 *225:17 *225:23 10.75 
5 *225:23 *225:25 4.32143 
6 *225:25 *356:A 15.0714 
7 *225:25 *305:A3 10.75 
8 *225:23 *359:A2 12.9286 
9 *225:17 *469:B1 5 
*END

*D_NET *226 0.0054386
*CONN
*P req[19] I
*I *360:A1 I *D AND2_X1
*I *469:B2 I *D OAI21_X1
*I *355:A I *D INV_X1
*I *305:A2 I *D NOR3_X1
*CAP
1 req[19] 0.00025921
2 *360:A1 0
3 *469:B2 1.91099e-05
4 *355:A 0
5 *305:A2 5.72247e-05
6 *226:44 5.65431e-05
7 *226:21 0.000145707
8 *226:13 6.99949e-05
9 *226:9 0.000873279
10 *226:7 0.000854334
11 *226:5 0.00025921
12 *305:A2 *232:9 1.60378e-05
13 *305:A2 *265:19 0
14 *305:A2 *278:15 3.46864e-06
15 *469:B2 *257:19 4.32144e-07
16 *469:B2 *265:19 8.43215e-07
17 *226:5 *228:7 0.000193898
18 *226:5 *239:5 0
19 *226:5 *275:13 0.000528215
20 *226:9 *234:27 7.81551e-05
21 *226:9 *235:9 0.000140197
22 *226:9 *271:13 0.000872929
23 *226:13 *253:5 1.31201e-05
24 *226:13 *257:9 2.83972e-05
25 *226:13 *257:19 7.7664e-07
26 *226:21 *232:9 7.20246e-06
27 *226:21 *257:19 1.44215e-05
28 *226:21 *261:23 1.32625e-05
29 *226:44 *257:19 8.64288e-07
30 *226:44 *261:23 5.96839e-05
31 *226:44 *265:19 3.93465e-06
32 *226:44 *273:23 6.05848e-05
33 *305:A3 *305:A2 2.39679e-06
34 *359:A1 *305:A2 2.16072e-07
35 *359:A3 *305:A2 0
36 *360:A2 *226:13 2.39679e-06
37 *360:A2 *226:21 2.32548e-05
38 *377:A2 *226:9 8.33184e-06
39 *455:A1 *226:9 3.38055e-05
40 *49:23 *226:21 0
41 *54:10 *226:9 4.1655e-06
42 *135:14 *226:9 0.000142445
43 *150:35 *226:9 0.000212697
44 *156:25 *226:9 1.48912e-05
45 *157:18 *305:A2 1.25215e-05
46 *158:10 *226:9 0
47 *167:12 *305:A2 0.000100243
48 *167:12 *226:21 6.31375e-05
49 *175:30 *226:44 7.52322e-06
50 *193:36 *226:9 4.24402e-05
51 *201:25 *226:9 0
52 *217:9 *226:9 0.000120518
53 *221:27 *226:9 7.0096e-06
54 *223:5 *226:5 3.08081e-06
55 *225:23 *226:44 6.48738e-06
*RES
1 req[19] *226:5 49.0357 
2 *226:5 *226:7 5 
3 *226:7 *226:9 111.536 
4 *226:9 *226:13 8.25 
5 *226:13 *226:21 12.4643 
6 *226:21 *305:A2 17.7857 
7 *226:21 *226:44 17.8629 
8 *226:44 *355:A 5 
9 *226:44 *469:B2 7.10714 
10 *226:13 *360:A1 5 
*END

*D_NET *227 0.00331396
*CONN
*P req[1] I
*I *316:A1 I *D NAND2_X1
*I *313:A3 I *D NOR4_X4
*CAP
1 req[1] 0.000103197
2 *316:A1 0
3 *313:A3 7.52298e-05
4 *227:17 0.000481315
5 *227:15 0.000660404
6 *227:11 0.000357516
7 *313:A3 *313:A1 1.39634e-05
8 *313:A3 *315:A1 2.16072e-07
9 *313:A3 *315:A2 1.25215e-05
10 *313:A3 *279:9 3.2433e-05
11 *227:15 *247:9 0
12 *227:17 *315:A2 2.75346e-06
13 grant[28] *227:11 6.4294e-06
14 grant[2] *227:11 0.000231344
15 grant[55] *227:17 0.000142531
16 grant[58] *227:15 0.000215669
17 grant[59] *227:17 6.90078e-05
18 *313:A4 *313:A3 8.88375e-05
19 *314:A2 *313:A3 7.19036e-06
20 *317:A1 *227:17 1.59582e-06
21 *32:37 *313:A3 5.62265e-05
22 *34:8 *227:17 4.07669e-05
23 *166:14 *227:11 0.000224981
24 *196:20 *227:17 7.01216e-05
25 *200:31 *313:A3 5.42636e-05
26 *200:31 *227:17 1.04788e-05
27 *200:41 *227:17 8.08e-05
28 *204:18 *313:A3 7.19036e-06
29 *220:9 *227:15 0.000266971
*RES
1 req[1] *227:11 27.7143 
2 *227:11 *227:15 35.7857 
3 *227:15 *227:17 60.75 
4 *227:17 *313:A3 28.7143 
5 *227:17 *316:A1 5 
*END

*D_NET *228 0.00261931
*CONN
*P req[20] I
*I *354:A2 I *D AND4_X1
*I *309:A2 I *D NOR4_X1
*CAP
1 req[20] 0.000258748
2 *354:A2 0
3 *309:A2 6.84274e-05
4 *228:13 0.000113993
5 *228:9 0.000689071
6 *228:7 0.000902253
7 *309:A2 *309:A3 7.72792e-06
8 *309:A2 *350:A 3.30047e-06
9 *309:A2 *235:9 3.14596e-05
10 *228:7 *231:7 5.42319e-06
11 *228:7 *239:5 9.7035e-05
12 *228:9 *277:9 0
13 *228:13 *230:5 7.49921e-06
14 grant[25] *228:13 1.25215e-05
15 grant[26] *228:13 1.74934e-05
16 *354:A1 *228:13 1.14686e-05
17 *369:A2 *309:A2 4.91108e-05
18 *369:A2 *228:13 2.39679e-06
19 *56:35 *309:A2 7.5681e-05
20 *159:19 *228:13 9.68176e-06
21 *159:23 *228:9 4.18985e-05
22 *201:25 *228:9 0
23 *212:18 *309:A2 7.19036e-06
24 *217:15 *309:A2 1.3027e-05
25 *226:5 *228:7 0.000193898
*RES
1 req[20] *228:7 45.5357 
2 *228:7 *228:9 57.9286 
3 *228:9 *228:13 11.25 
4 *228:13 *309:A2 25.8214 
5 *228:13 *354:A2 5 
*END

*D_NET *229 0.00332278
*CONN
*P req[21] I
*I *350:A I *D INV_X1
*I *309:A1 I *D NOR4_X1
*I *369:A1 I *D AND3_X1
*CAP
1 req[21] 0.000248795
2 *350:A 3.95567e-05
3 *309:A1 8.71307e-06
4 *369:A1 2.34176e-05
5 *229:28 5.29558e-05
6 *229:13 5.58203e-05
7 *229:9 0.000333148
8 *229:5 0.000554227
9 *229:9 *480:B1 0.000101975
10 *229:9 *266:9 4.43536e-05
11 *309:A2 *350:A 3.30047e-06
12 *369:A2 *369:A1 2.39679e-06
13 *467:A3 *369:A1 8.81157e-06
14 *480:A *229:9 7.91051e-05
15 *56:35 *369:A1 4.04033e-05
16 *123:8 *229:9 6.36312e-05
17 *157:10 *229:9 0.000191711
18 *157:16 *229:9 2.26011e-05
19 *163:8 *369:A1 5.83235e-06
20 *166:10 *229:9 0
21 *175:30 *229:5 6.85774e-07
22 *175:30 *229:9 1.65458e-05
23 *179:24 *229:9 2.82698e-06
24 *212:18 *350:A 2.23067e-05
25 *212:18 *229:13 2.10852e-05
26 *212:18 *229:28 1.87369e-06
27 *215:42 *229:9 5.20238e-07
28 *217:15 *350:A 4.28931e-05
29 *217:15 *369:A1 2.52965e-06
30 *217:15 *229:13 4.98267e-05
31 *217:15 *229:28 7.19036e-06
32 *218:7 *229:5 1.3917e-06
33 *218:9 *229:5 0.000615787
34 *221:27 *229:5 2.24822e-06
35 *221:27 *229:9 4.16464e-05
36 *225:7 *229:5 1.3917e-06
37 *225:9 *229:5 0.000604952
38 *225:17 *229:9 6.32461e-06
*RES
1 req[21] *229:5 57.0357 
2 *229:5 *229:9 48.6786 
3 *229:9 *229:13 9.75 
4 *229:13 *369:A1 18.0357 
5 *229:13 *229:28 0.75 
6 *229:28 *309:A1 5.92857 
7 *229:28 *350:A 10.75 
*END

*D_NET *230 0.00171382
*CONN
*P req[22] I
*I *351:A2 I *D NOR2_X1
*I *309:A4 I *D NOR4_X1
*I *479:B1 I *D OAI21_X1
*I *370:A I *D INV_X1
*CAP
1 req[22] 0.000283106
2 *351:A2 0
3 *309:A4 4.07957e-05
4 *479:B1 0
5 *370:A 4.63477e-05
6 *230:33 4.84327e-05
7 *230:15 0.000119332
8 *230:9 9.87298e-05
9 *230:5 0.000301214
10 *309:A4 *309:A3 1.26998e-05
11 *309:A4 *231:19 2.1851e-05
12 *370:A *479:B2 4.82191e-05
13 *230:5 *231:13 2.19518e-05
14 *230:15 *234:17 4.18985e-05
15 *230:33 *231:13 4.30918e-06
16 *230:33 *231:19 1.21774e-06
17 grant[14] *230:15 3.56012e-06
18 grant[22] *230:5 1.44187e-05
19 grant[25] *230:5 0.000195599
20 *354:A1 *230:5 7.27785e-07
21 *479:A *370:A 2.94743e-05
22 *479:A *230:15 2.75346e-06
23 *481:A1 *370:A 1.76665e-06
24 *54:10 *230:9 1.96924e-05
25 *148:22 *370:A 4.12459e-06
26 *148:24 *230:15 3.19164e-07
27 *158:10 *230:9 6.70982e-05
28 *158:10 *230:15 1.72405e-05
29 *201:25 *230:15 5.28224e-05
30 *211:8 *309:A4 2.37117e-05
31 *211:8 *230:33 4.30918e-06
32 *212:18 *230:5 0.000159733
33 *217:9 *230:9 1.20936e-06
34 *217:9 *230:15 1.76506e-05
35 *228:13 *230:5 7.49921e-06
*RES
1 req[22] *230:5 45.5357 
2 *230:5 *230:9 8.64286 
3 *230:9 *230:15 15.3214 
4 *230:15 *370:A 11.6786 
5 *230:15 *479:B1 5 
6 *230:9 *230:33 6.25 
7 *230:33 *309:A4 10.75 
8 *230:33 *351:A2 5 
*END

*D_NET *231 0.0041132
*CONN
*P req[23] I
*I *351:A1 I *D NOR2_X1
*I *373:A1 I *D NOR3_X1
*I *479:B2 I *D OAI21_X1
*I *374:A1 I *D AND2_X1
*I *309:A3 I *D NOR4_X1
*CAP
1 req[23] 1.37642e-05
2 *351:A1 0
3 *373:A1 1.04976e-05
4 *479:B2 3.09812e-05
5 *374:A1 1.89691e-05
6 *309:A3 7.71879e-06
7 *231:32 7.41923e-05
8 *231:30 7.56119e-05
9 *231:19 8.87883e-05
10 *231:13 0.000313575
11 *231:11 0.000273378
12 *231:9 0.000431955
13 *231:7 0.00044572
14 *374:A1 *235:9 4.11048e-05
15 *231:7 *239:5 5.42319e-06
16 *231:9 valid 6.01144e-05
17 *231:9 *240:9 0.000795029
18 *231:9 *242:13 2.59224e-06
19 *231:9 *274:11 0.000117243
20 *231:9 *275:11 6.70982e-05
21 *231:30 *235:9 0.00014038
22 *231:32 *235:9 6.47804e-05
23 grant[0] *231:9 5.59346e-05
24 grant[20] *231:13 0.000114613
25 grant[22] *231:13 2.2287e-05
26 grant[37] *231:9 2.48069e-05
27 grant[43] *231:9 1.94663e-05
28 grant[46] *231:9 9.20438e-05
29 grant[53] *231:9 3.13034e-06
30 index[5] *373:A1 1.86809e-06
31 *309:A2 *309:A3 7.72792e-06
32 *309:A4 *309:A3 1.26998e-05
33 *309:A4 *231:19 2.1851e-05
34 *370:A *479:B2 4.82191e-05
35 *373:A2 *373:A1 2.39679e-06
36 *455:A3 *374:A1 1.37673e-05
37 *479:A *373:A1 2.49523e-06
38 *56:14 *374:A1 2.75346e-06
39 *56:18 *374:A1 1.04526e-05
40 *56:18 *231:32 8.56664e-06
41 *56:35 *231:30 4.83764e-05
42 *56:35 *231:32 1.19634e-05
43 *148:22 *374:A1 3.46596e-06
44 *148:22 *479:B2 2.39679e-06
45 *148:24 *374:A1 2.39679e-06
46 *148:24 *479:B2 1.87439e-05
47 *160:6 *373:A1 2.39679e-06
48 *161:12 *374:A1 2.72171e-06
49 *211:8 *231:13 3.23723e-07
50 *212:18 *309:A3 1.87369e-06
51 *212:18 *231:13 0.000381303
52 *212:18 *231:19 4.52928e-05
53 *219:11 *231:9 1.50494e-05
54 *228:7 *231:7 5.42319e-06
55 *230:5 *231:13 2.19518e-05
56 *230:33 *231:13 4.30918e-06
57 *230:33 *231:19 1.21774e-06
*RES
1 req[23] *231:7 6.53572 
2 *231:7 *231:9 63.3572 
3 *231:9 *231:11 5 
4 *231:11 *231:13 45.25 
5 *231:13 *231:19 5.92857 
6 *231:19 *309:A3 6.25 
7 *231:19 *231:30 12.7143 
8 *231:30 *231:32 3.64286 
9 *231:32 *374:A1 13.5357 
10 *231:32 *479:B2 14.75 
11 *231:30 *373:A1 11.25 
12 *231:13 *351:A1 5 
*END

*D_NET *232 0.00265303
*CONN
*P req[24] I
*I *368:A2 I *D AND4_X1
*I *307:A2 I *D NOR4_X1
*CAP
1 req[24] 0.000294149
2 *368:A2 2.66207e-05
3 *307:A2 1.14063e-05
4 *232:9 0.00053755
5 *232:7 0.000499523
6 *232:5 0.000294149
7 *307:A2 *307:A3 2.39679e-06
8 *307:A2 *377:A1 4.21607e-06
9 *307:A2 *234:37 3.37286e-06
10 *368:A2 *377:A1 1.19451e-05
11 *232:5 *262:5 0.000257589
12 *232:9 *233:9 0.000143895
13 *232:9 *233:22 3.22858e-06
14 *232:9 *261:23 3.50431e-06
15 index[0] *232:5 0.00025703
16 *305:A2 *232:9 1.60378e-05
17 *368:A1 *368:A2 4.8675e-05
18 *368:A1 *232:9 4.09451e-05
19 *455:A1 *368:A2 1.39344e-06
20 *61:6 *368:A2 1.32348e-05
21 *156:25 *232:9 7.88407e-06
22 *157:16 *232:9 8.78935e-06
23 *167:12 *232:9 4.71277e-05
24 *175:34 *368:A2 3.53507e-06
25 *175:34 *232:9 1.12287e-05
26 *203:28 *232:9 9.73377e-06
27 *210:20 *232:9 8.66657e-05
28 *224:9 *232:9 0
29 *226:21 *232:9 7.20246e-06
*RES
1 req[24] *232:5 53.0357 
2 *232:5 *232:7 5 
3 *232:7 *232:9 57.25 
4 *232:9 *307:A2 11.25 
5 *232:9 *368:A2 14.2143 
*END

*D_NET *233 0.00239154
*CONN
*P req[25] I
*I *307:A1 I *D NOR4_X1
*I *377:A1 I *D AND3_X1
*I *361:A I *D INV_X1
*CAP
1 req[25] 0.000315528
2 *307:A1 0
3 *377:A1 6.32275e-05
4 *361:A 0
5 *233:22 8.81683e-05
6 *233:9 0.000166053
7 *233:5 0.00045664
8 *377:A1 *234:37 2.23415e-06
9 *233:5 *265:19 0
10 *233:5 *273:13 0
11 *233:5 *277:7 8.42821e-05
12 grant[10] *233:5 2.60945e-06
13 grant[1] *233:5 1.3917e-06
14 *307:A2 *377:A1 4.21607e-06
15 *368:A1 *377:A1 7.72792e-06
16 *368:A1 *233:22 5.32728e-05
17 *368:A2 *377:A1 1.19451e-05
18 *455:A1 *377:A1 3.65556e-06
19 *455:A1 *233:9 0.00019338
20 *455:A1 *233:22 6.55056e-05
21 *481:A2 *377:A1 4.73284e-06
22 *61:6 *377:A1 1.86809e-06
23 *66:43 *377:A1 4.92863e-06
24 *156:25 *233:9 3.52749e-05
25 *157:18 *233:5 0.000564991
26 *175:34 *377:A1 9.14677e-05
27 *193:30 *377:A1 2.13169e-05
28 *232:9 *233:9 0.000143895
29 *232:9 *233:22 3.22858e-06
*RES
1 req[25] *233:5 52.0357 
2 *233:5 *233:9 26.9643 
3 *233:9 *361:A 10 
4 *233:9 *233:22 9.57143 
5 *233:22 *377:A1 24.25 
6 *233:22 *307:A1 5 
*END

*D_NET *234 0.00310613
*CONN
*P req[26] I
*I *379:A2 I *D AND3_X1
*I *307:A4 I *D NOR4_X1
*I *362:A2 I *D NOR2_X1
*I *480:B1 I *D OAI21_X1
*CAP
1 req[26] 0.00021654
2 *379:A2 0
3 *307:A4 0
4 *362:A2 0
5 *480:B1 5.60355e-05
6 *234:37 0.000116008
7 *234:27 0.00013019
8 *234:17 0.000240308
9 *234:9 0.00038663
10 *480:B1 *362:A1 1.21774e-06
11 *480:B1 *480:B2 8.43215e-07
12 *234:17 *235:50 3.51526e-05
13 *234:27 *307:A3 2.77939e-05
14 *234:27 *378:A 1.40196e-06
15 *234:37 *307:A3 2.39679e-06
16 *234:37 *362:A1 6.37013e-06
17 grant[14] *234:9 0.000496208
18 grant[3] *234:17 1.27666e-06
19 grant[3] *234:27 2.56243e-06
20 index[5] *234:9 8.49419e-06
21 *307:A2 *234:37 3.37286e-06
22 *377:A1 *234:37 2.23415e-06
23 *379:A3 *234:17 1.21774e-06
24 *379:A3 *234:27 1.30297e-05
25 *455:A1 *234:27 7.62765e-06
26 *481:A1 *234:17 5.54369e-05
27 *481:A2 *234:17 0.000263064
28 *27:14 *234:27 4.18746e-06
29 *61:6 *234:37 2.39679e-06
30 *66:10 *480:B1 1.74506e-06
31 *123:8 *480:B1 3.75461e-05
32 *150:35 *480:B1 4.21607e-06
33 *157:16 *234:37 7.88152e-05
34 *160:6 *234:9 0.000463196
35 *162:12 *234:17 3.19164e-07
36 *175:34 *234:37 7.82425e-05
37 *179:24 *480:B1 0
38 *179:24 *234:27 2.38979e-05
39 *179:24 *234:37 0
40 *193:30 *480:B1 8.43215e-07
41 *201:25 *234:17 6.41004e-05
42 *209:33 *234:37 7.77781e-06
43 *209:37 *234:27 6.48216e-07
44 *209:37 *234:37 2.55029e-06
45 *217:9 *234:17 1.94646e-05
46 *221:9 *234:27 1.87418e-05
47 *226:9 *234:27 7.81551e-05
48 *229:9 *480:B1 0.000101975
49 *230:15 *234:17 4.18985e-05
*RES
1 req[26] *234:9 47.2143 
2 *234:9 *234:17 36.1072 
3 *234:17 *234:27 20.3214 
4 *234:27 *234:37 19.3214 
5 *234:37 *480:B1 23.1786 
6 *234:37 *362:A2 5 
7 *234:27 *307:A4 5 
8 *234:17 *379:A2 5 
*END

*D_NET *235 0.00457545
*CONN
*P req[27] I
*I *378:A I *D INV_X1
*I *307:A3 I *D NOR4_X1
*I *380:A1 I *D AND2_X1
*I *480:B2 I *D OAI21_X1
*I *362:A1 I *D NOR2_X1
*CAP
1 req[27] 0.000285002
2 *378:A 5.42377e-06
3 *307:A3 5.24392e-05
4 *380:A1 0
5 *480:B2 1.51468e-05
6 *362:A1 2.3783e-05
7 *235:50 0.000146608
8 *235:19 8.48562e-05
9 *235:13 5.9171e-05
10 *235:11 0.00010199
11 *235:9 0.000754922
12 *235:7 0.000754922
13 *235:5 0.000285002
14 *235:5 *239:5 0.000243357
15 *235:5 *268:5 0.000243357
16 *235:9 *240:25 1.2385e-05
17 *235:9 *251:27 6.48738e-06
18 *235:9 *271:13 0.000241609
19 *235:50 *271:9 2.76156e-05
20 grant[3] *307:A3 3.259e-05
21 grant[3] *378:A 7.72792e-06
22 *307:A2 *307:A3 2.39679e-06
23 *309:A2 *235:9 3.14596e-05
24 *374:A1 *235:9 4.11048e-05
25 *377:A2 *307:A3 0
26 *379:A3 *307:A3 0
27 *455:A1 *235:9 5.55323e-05
28 *455:A3 *235:9 9.64949e-05
29 *467:A3 *235:9 5.94167e-07
30 *480:B1 *362:A1 1.21774e-06
31 *480:B1 *480:B2 8.43215e-07
32 *481:A2 *480:B2 2.52965e-06
33 *481:A2 *235:50 4.0713e-05
34 *56:35 *235:9 5.47625e-06
35 *61:6 *362:A1 2.75346e-06
36 *66:10 *362:A1 2.75346e-06
37 *66:23 *362:A1 1.52724e-05
38 *150:35 *480:B2 1.28122e-06
39 *150:35 *235:13 1.56316e-05
40 *150:35 *235:19 3.33034e-05
41 *150:35 *235:50 2.07793e-05
42 *151:20 *235:9 9.36016e-06
43 *157:10 *235:19 1.85361e-05
44 *157:16 *362:A1 5.41015e-05
45 *157:16 *235:19 6.24941e-06
46 *161:12 *235:9 5.90597e-06
47 *163:8 *235:9 2.68214e-07
48 *165:8 *235:9 7.95929e-05
49 *175:34 *362:A1 5.41015e-05
50 *175:34 *235:19 6.44159e-05
51 *189:39 *235:50 5.99828e-06
52 *193:30 *480:B2 6.65423e-06
53 *217:5 *307:A3 1.32348e-05
54 *217:9 *307:A3 1.04526e-05
55 *217:9 *235:50 6.15068e-05
56 *220:13 *235:13 1.28122e-06
57 *220:13 *235:19 3.83909e-06
58 *220:13 *235:50 1.60038e-06
59 *221:9 *307:A3 5.34233e-06
60 *226:9 *235:9 0.000140197
61 *231:30 *235:9 0.00014038
62 *231:32 *235:9 6.47804e-05
63 *234:17 *235:50 3.51526e-05
64 *234:27 *307:A3 2.77939e-05
65 *234:27 *378:A 1.40196e-06
66 *234:37 *307:A3 2.39679e-06
67 *234:37 *362:A1 6.37013e-06
*RES
1 req[27] *235:5 50.5357 
2 *235:5 *235:7 5 
3 *235:7 *235:9 91.8572 
4 *235:9 *235:11 5 
5 *235:11 *235:13 1.75 
6 *235:13 *235:19 11.8929 
7 *235:19 *362:A1 14.7143 
8 *235:19 *480:B2 11.75 
9 *235:13 *380:A1 5 
10 *235:11 *235:50 18.5 
11 *235:50 *307:A3 16.8571 
12 *235:50 *378:A 10.75 
*END

*D_NET *236 0.00400614
*CONN
*P req[28] I
*I *364:A I *D INV_X1
*I *306:A2 I *D NOR4_X1
*I *376:A2 I *D AND4_X1
*CAP
1 req[28] 0.000326716
2 *364:A 0
3 *306:A2 3.8614e-05
4 *376:A2 1.35387e-05
5 *236:19 9.28995e-05
6 *236:13 6.3965e-05
7 *236:9 0.000432074
8 *236:7 0.000408856
9 *236:5 0.000326716
10 *306:A2 *306:A1 9.93007e-05
11 *306:A2 *306:A4 1.87637e-06
12 *306:A2 *248:17 1.83411e-06
13 *376:A2 *363:A 2.30024e-06
14 *236:5 *246:5 0.00024705
15 *236:5 *246:9 0.000193833
16 *236:19 *306:A1 4.32319e-05
17 *236:19 *237:9 7.69614e-05
18 *341:A1 *236:9 9.77674e-06
19 *343:A1 *236:9 2.75475e-05
20 *366:A1 *236:13 1.59582e-06
21 *367:A3 *236:9 0.000128326
22 *376:A1 *376:A2 2.39679e-06
23 *376:A3 *376:A2 1.74934e-05
24 *383:A2 *236:13 1.21774e-06
25 *383:A2 *236:19 7.21602e-06
26 *462:A2 *236:9 2.19614e-05
27 *478:A *306:A2 1.36704e-05
28 *25:12 *236:9 1.2619e-05
29 *26:26 *306:A2 0.000103005
30 *26:26 *236:19 0.000114616
31 *28:8 *236:9 8.44668e-05
32 *48:12 *236:9 0
33 *49:14 *236:9 2.37298e-06
34 *150:27 *236:9 1.54409e-06
35 *150:35 *236:13 2.2287e-05
36 *153:8 *236:9 0
37 *154:10 *236:9 7.2012e-05
38 *193:30 *236:13 1.11435e-06
39 *197:18 *236:5 0.000735173
40 *220:21 *236:13 8.43376e-06
41 *220:21 *236:19 7.77781e-06
42 *221:31 *236:9 0.00020458
43 *223:9 *236:9 2.64662e-05
44 *224:5 *236:5 8.69815e-06
*RES
1 req[28] *236:5 69.0357 
2 *236:5 *236:7 5 
3 *236:7 *236:9 51.1429 
4 *236:9 *236:13 8.25 
5 *236:13 *236:19 13.1071 
6 *236:19 *376:A2 11.75 
7 *236:19 *306:A2 17.4286 
8 *236:13 *364:A 5 
*END

*D_NET *237 0.00277861
*CONN
*P req[29] I
*I *306:A1 I *D NOR4_X1
*I *363:A I *D INV_X1
*I *383:A1 I *D AND2_X1
*CAP
1 req[29] 0.00047697
2 *306:A1 8.12355e-05
3 *363:A 2.32777e-05
4 *383:A1 4.94357e-05
5 *237:11 7.27134e-05
6 *237:9 0.000255961
7 *237:5 0.000651696
8 *306:A1 *365:A2 5.85334e-06
9 *237:5 *241:11 5.33865e-05
10 *237:5 *245:5 0.000115268
11 *237:5 *245:19 8.19765e-05
12 *237:5 *249:13 0.000245075
13 *306:A2 *306:A1 9.93007e-05
14 *308:A1 *237:9 2.4782e-05
15 *310:A1 *237:5 1.86809e-06
16 *366:A1 *363:A 8.43215e-07
17 *366:A2 *363:A 4.32144e-07
18 *376:A1 *363:A 8.43215e-07
19 *376:A2 *363:A 2.30024e-06
20 *376:A3 *383:A1 3.83909e-06
21 *383:A2 *383:A1 4.64203e-06
22 *387:A3 *306:A1 0
23 *478:A *306:A1 2.14404e-05
24 *478:C1 *306:A1 1.04526e-05
25 *26:26 *306:A1 1.36786e-05
26 *26:26 *237:9 1.2018e-05
27 *150:27 *237:9 6.96893e-06
28 *167:8 *237:5 0.00020312
29 *171:10 *306:A1 2.86672e-05
30 *171:10 *383:A1 1.58545e-05
31 *171:10 *237:9 6.91769e-05
32 *179:8 *383:A1 1.7529e-05
33 *218:7 *237:5 2.60945e-06
34 *218:9 *237:5 5.19897e-06
35 *236:19 *306:A1 4.32319e-05
36 *236:19 *237:9 7.69614e-05
*RES
1 req[29] *237:5 74.0357 
2 *237:5 *237:9 26.2857 
3 *237:9 *237:11 5 
4 *237:11 *383:A1 20.7143 
5 *237:11 *363:A 7.25 
6 *237:9 *306:A1 22.9286 
*END

*D_NET *238 0.00292513
*CONN
*P req[2] I
*I *318:A I *D INV_X1
*I *313:A2 I *D NOR4_X4
*I *315:A2 I *D NOR2_X1
*CAP
1 req[2] 0.000301119
2 *318:A 8.28934e-06
3 *313:A2 4.04416e-05
4 *315:A2 9.3878e-06
5 *238:26 8.26383e-05
6 *238:13 0.000268302
7 *238:5 0.000526126
8 *313:A2 *319:A1 2.52965e-06
9 *313:A2 *280:8 1.87418e-05
10 *313:A2 *280:12 9.18014e-06
11 *315:A2 *315:A1 4.78054e-06
12 *318:A *319:A1 3.28137e-06
13 *318:A *280:12 4.9678e-06
14 *238:5 *270:5 4.40537e-05
15 *238:13 *249:17 0.000104247
16 *238:13 *249:28 0.000102186
17 *238:26 *319:A1 4.18985e-05
18 *238:26 *249:28 1.23508e-05
19 *238:26 *249:39 1.66988e-05
20 grant[46] *238:5 3.73676e-06
21 grant[48] *238:5 0.000238075
22 grant[48] *238:13 0.000343224
23 *313:A3 *315:A2 1.25215e-05
24 *313:A4 *238:26 0
25 *319:A2 *238:26 1.55645e-05
26 *484:B2 *238:13 0.000165385
27 *32:41 *313:A2 6.38784e-06
28 *33:8 *238:13 3.5496e-05
29 *33:8 *238:26 1.67748e-05
30 *168:6 *318:A 2.39679e-06
31 *199:20 *238:5 0.00033198
32 *199:20 *238:13 0.000147237
33 *200:41 *238:26 2.3767e-06
34 *227:17 *315:A2 2.75346e-06
*RES
1 req[2] *238:5 51.4286 
2 *238:5 *238:13 48.8929 
3 *238:13 *315:A2 11.25 
4 *238:13 *238:26 10 
5 *238:26 *313:A2 10.3571 
6 *238:26 *318:A 6.25 
*END

*D_NET *239 0.00355718
*CONN
*P req[30] I
*I *387:A2 I *D AND3_X1
*I *365:A2 I *D NOR2_X1
*I *306:A4 I *D NOR4_X1
*CAP
1 req[30] 0.000485624
2 *387:A2 0
3 *365:A2 1.58891e-05
4 *306:A4 2.51873e-05
5 *239:19 6.47349e-05
6 *239:13 4.61319e-05
7 *239:9 0.000688141
8 *239:7 0.000665668
9 *239:5 0.000485624
10 *306:A4 *306:A3 8.20715e-06
11 *306:A4 *240:42 5.78452e-05
12 *306:A4 *248:17 5.50692e-06
13 *239:5 *268:5 4.59642e-05
14 *239:5 *275:13 0
15 *239:19 *386:A 2.59893e-05
16 *239:19 *240:42 1.72426e-05
17 *306:A1 *365:A2 5.85334e-06
18 *306:A2 *306:A4 1.87637e-06
19 *387:A1 *239:13 7.72537e-06
20 *387:A3 *239:13 2.75346e-06
21 *387:A3 *239:19 7.72792e-06
22 *389:A1 *239:13 3.93732e-06
23 *478:A *365:A2 6.85774e-07
24 *478:A *239:13 0
25 *487:A2 *239:9 5.57484e-06
26 *26:12 *239:9 5.41314e-05
27 *26:26 *306:A4 7.86506e-05
28 *26:26 *239:19 7.68679e-05
29 *64:14 *239:13 0
30 *110:12 *239:9 8.12204e-05
31 *148:22 *239:9 1.32167e-05
32 *169:10 *306:A4 4.56984e-07
33 *169:10 *239:19 4.82099e-06
34 *221:31 *239:9 2.89317e-05
35 *221:33 *239:13 1.2553e-05
36 *223:9 *239:9 0.000186629
37 *226:5 *239:5 0
38 *228:7 *239:5 9.7035e-05
39 *231:7 *239:5 5.42319e-06
40 *235:5 *239:5 0.000243357
*RES
1 req[30] *239:5 69.0357 
2 *239:5 *239:7 5 
3 *239:7 *239:9 73.5357 
4 *239:9 *239:13 8.25 
5 *239:13 *239:19 10.0714 
6 *239:19 *306:A4 14.8214 
7 *239:19 *365:A2 11.9286 
8 *239:13 *387:A2 5 
*END

*D_NET *240 0.0044532
*CONN
*P req[31] I
*I *386:A I *D INV_X1
*I *365:A1 I *D NOR2_X1
*I *306:A3 I *D NOR4_X1
*CAP
1 req[31] 1.59066e-05
2 *386:A 6.25173e-06
3 *365:A1 0
4 *306:A3 2.77501e-06
5 *240:42 3.41387e-05
6 *240:31 0.000230498
7 *240:25 0.000402288
8 *240:19 0.000260954
9 *240:9 0.000426702
10 *240:7 0.000384106
11 *240:7 *274:11 5.04493e-06
12 *240:9 *258:11 9.0076e-06
13 *240:9 *263:11 1.36901e-05
14 *240:9 *276:13 0.000228461
15 *240:31 *251:27 0.000386309
16 grant[12] *240:19 9.51279e-05
17 grant[13] *240:9 1.38574e-05
18 grant[36] *240:9 1.52083e-06
19 grant[40] *240:9 2.08098e-06
20 grant[59] *240:7 8.60773e-06
21 grant[62] *240:7 3.23723e-07
22 *306:A4 *306:A3 8.20715e-06
23 *306:A4 *240:42 5.78452e-05
24 *455:A3 *240:25 4.21607e-06
25 *148:24 *240:19 9.45928e-05
26 *150:37 *240:25 0.000410956
27 *151:20 *240:31 0
28 *155:10 *240:19 4.16485e-05
29 *161:12 *240:25 1.16229e-06
30 *161:19 *240:25 0.000435462
31 *169:10 *306:A3 1.07288e-06
32 *169:10 *386:A 7.14654e-06
33 *169:10 *240:42 1.25962e-05
34 *231:9 *240:9 0.000795029
35 *235:9 *240:25 1.2385e-05
36 *239:19 *386:A 2.59893e-05
37 *239:19 *240:42 1.72426e-05
*RES
1 req[31] *240:7 7.03572 
2 *240:7 *240:9 56.5715 
3 *240:9 *240:19 26.0357 
4 *240:19 *240:25 46.5 
5 *240:25 *240:31 19.03 
6 *240:31 *306:A3 10.4286 
7 *240:31 *240:42 4.14286 
8 *240:42 *365:A1 10 
9 *240:42 *386:A 11.6071 
*END

*D_NET *241 0.00301085
*CONN
*P req[32] I
*I *381:A2 I *D NAND3_X1
*I *289:A I *D INV_X1
*CAP
1 req[32] 0.000330301
2 *381:A2 3.75613e-05
3 *289:A 1.76997e-05
4 *241:13 0.000436865
5 *241:11 0.000711905
6 *289:A *288:A 1.03979e-05
7 *381:A2 *242:17 3.96416e-05
8 *241:11 *245:5 5.33865e-05
9 grant[51] *289:A 1.25189e-05
10 grant[51] *241:13 0.000793792
11 *381:A1 *381:A2 2.39679e-06
12 *382:A2 *381:A2 1.25189e-05
13 *155:10 *241:11 0.000194676
14 *172:24 *381:A2 3.58851e-06
15 *173:10 *289:A 1.43238e-06
16 *173:10 *241:13 8.61582e-05
17 *175:22 *289:A 1.87637e-06
18 *175:22 *381:A2 1.74934e-05
19 *203:30 *241:13 0.000193258
20 *237:5 *241:11 5.33865e-05
*RES
1 req[32] *241:11 48.25 
2 *241:11 *241:13 72.75 
3 *241:13 *289:A 7.75 
4 *241:13 *381:A2 20.0357 
*END

*D_NET *242 0.00588409
*CONN
*P req[33] I
*I *288:A I *D INV_X1
*CAP
1 req[33] 0.000906654
2 *288:A 1.13983e-05
3 *242:17 0.00071816
4 *242:15 0.000706762
5 *242:13 0.000906654
6 *242:17 *249:17 0.000111565
7 *242:17 *249:28 3.06077e-05
8 *242:17 *263:27 1.67442e-05
9 *242:17 *278:17 0.00148448
10 grant[55] *242:13 2.60945e-06
11 grant[58] *242:13 2.05033e-06
12 *289:A *288:A 1.03979e-05
13 *291:A1 *242:17 5.94167e-07
14 *291:A2 *242:17 1.16395e-05
15 *320:A1 *242:17 4.45767e-06
16 *321:A1 *242:17 7.18184e-06
17 *345:A1 *242:17 3.49085e-06
18 *353:A2 *242:17 3.88863e-05
19 *353:A3 *242:17 1.02097e-05
20 *381:A2 *242:17 3.96416e-05
21 *484:A2 *242:17 0.000117712
22 *487:B1 *242:17 0.000142443
23 *8:8 *242:17 5.55834e-07
24 *11:8 *242:17 3.65304e-05
25 *11:36 *242:17 3.39845e-05
26 *32:37 *242:17 4.56505e-05
27 *42:19 *242:17 0.000191666
28 *43:52 *242:17 7.14239e-06
29 *118:8 *242:17 0
30 *173:10 *288:A 2.47811e-05
31 *175:18 *242:17 7.70225e-06
32 *192:30 *242:17 6.48738e-06
33 *194:18 *242:13 0.000242652
34 *231:9 *242:13 2.59224e-06
*RES
1 req[33] *242:13 46.49 
2 *242:13 *242:15 5 
3 *242:15 *242:17 112.429 
4 *242:17 *288:A 12.25 
*END

*D_NET *243 0.00594581
*CONN
*P req[34] I
*I *394:A3 I *D NOR4_X2
*I *290:A2 I *D NOR2_X1
*I *395:A I *D INV_X1
*CAP
1 req[34] 0.000627491
2 *394:A3 8.71307e-06
3 *290:A2 4.85112e-05
4 *395:A 4.64803e-05
5 *243:17 0.000116893
6 *243:13 5.20473e-05
7 *243:9 0.00113914
8 *243:7 0.00111771
9 *243:5 0.000627491
10 *290:A2 *290:A1 2.76483e-05
11 *290:A2 *394:A2 2.46838e-05
12 *394:A3 *247:23 0
13 *395:A *255:9 0.000102754
14 *243:5 *244:5 0.000231088
15 *243:5 *247:7 0.000125514
16 *243:5 *259:5 0.000168528
17 *243:5 *275:11 3.73676e-06
18 *243:9 *244:9 4.19284e-05
19 *243:9 *244:19 0
20 *243:9 *255:9 0
21 *243:9 *273:23 0
22 *243:9 *278:33 8.92915e-06
23 *243:9 *279:9 0
24 *243:17 *255:9 5.01494e-05
25 *286:A2 *243:9 1.53761e-05
26 *320:A2 *243:9 0.000106624
27 *334:A2 *243:9 8.94795e-05
28 *344:A1 *243:9 3.78866e-06
29 *345:A4 *243:9 0.000420812
30 *348:A2 *243:9 2.6323e-05
31 *461:A1 *243:9 3.49301e-05
32 *468:A2 *243:9 3.24253e-05
33 *4:20 *243:9 2.69044e-05
34 *10:12 *243:13 4.00586e-05
35 *11:51 *243:9 3.89953e-06
36 *30:14 *243:9 0
37 *43:52 *243:13 7.61232e-06
38 *118:8 *243:9 0
39 *148:12 *243:9 3.20856e-06
40 *149:12 *243:9 4.23938e-05
41 *151:20 *243:9 1.10597e-05
42 *172:8 *243:13 1.32323e-05
43 *172:24 *243:9 2.84765e-06
44 *172:24 *243:17 4.92863e-06
45 *175:18 *290:A2 3.01634e-05
46 *187:33 *395:A 3.48838e-06
47 *193:20 *243:9 8.88947e-05
48 *217:34 *243:9 0
49 *218:13 *243:9 0.000349889
50 *218:28 *243:9 1.80327e-05
*RES
1 req[34] *243:5 93.0358 
2 *243:5 *243:7 5 
3 *243:7 *243:9 138.679 
4 *243:9 *243:13 8.75 
5 *243:13 *243:17 7.96429 
6 *243:17 *395:A 15.6786 
7 *243:17 *290:A2 16.9286 
8 *243:13 *394:A3 5.92857 
*END

*D_NET *244 0.00606195
*CONN
*P req[35] I
*I *397:A I *D INV_X1
*I *394:A2 I *D NOR4_X2
*I *290:A1 I *D NOR2_X1
*I *396:A1 I *D NOR3_X1
*CAP
1 req[35] 0.000607012
2 *397:A 2.27647e-05
3 *394:A2 1.94936e-05
4 *290:A1 2.18542e-05
5 *396:A1 5.22122e-05
6 *244:36 4.13478e-05
7 *244:23 7.80406e-05
8 *244:21 0.000398699
9 *244:19 0.000573931
10 *244:9 0.000622999
11 *244:5 0.00100619
12 *397:A *247:23 1.05916e-05
13 *244:5 *259:5 0
14 *244:5 *268:5 0.000463493
15 *244:5 *275:11 3.73676e-06
16 *281:A *244:9 0.000119619
17 *290:A2 *290:A1 2.76483e-05
18 *290:A2 *394:A2 2.46838e-05
19 *338:A1 *244:19 4.16464e-05
20 *394:A1 *394:A2 2.39679e-06
21 *396:A2 *396:A1 2.21061e-05
22 *398:A1 *244:21 5.46432e-05
23 *461:A2 *244:21 4.80268e-06
24 *464:A2 *244:19 0.000179848
25 *464:A2 *244:21 2.91785e-06
26 *483:C1 *244:19 0.000106084
27 *491:B1 *244:21 6.67446e-05
28 *496:A1 *244:19 2.63178e-05
29 *10:12 *290:A1 1.32116e-05
30 *10:12 *394:A2 9.18388e-06
31 *10:12 *397:A 1.28122e-06
32 *43:12 *244:21 6.57022e-05
33 *43:52 *397:A 1.25215e-05
34 *45:10 *244:19 8.65972e-05
35 *52:14 *244:21 5.23144e-05
36 *152:10 *244:19 1.88334e-06
37 *152:10 *244:21 1.08199e-05
38 *152:12 *396:A1 2.21798e-05
39 *152:12 *244:21 0.000350264
40 *152:12 *244:23 3.02296e-05
41 *174:10 *396:A1 9.69244e-06
42 *174:10 *244:21 1.01993e-05
43 *174:10 *244:23 1.59409e-05
44 *175:18 *396:A1 1.00271e-05
45 *183:20 *244:21 8.88497e-06
46 *183:31 *244:21 9.63416e-05
47 *185:40 *244:21 0.000133707
48 *189:29 *244:21 3.00795e-06
49 *212:12 *244:19 7.93012e-05
50 *213:30 *396:A1 1.27666e-06
51 *217:34 *244:19 1.43637e-05
52 *222:9 *244:9 0
53 *222:9 *244:19 9.14182e-05
54 *222:15 *244:19 4.12796e-06
55 *222:15 *244:21 5.26383e-05
56 *243:5 *244:5 0.000231088
57 *243:9 *244:9 4.19284e-05
58 *243:9 *244:19 0
*RES
1 req[35] *244:5 96.0358 
2 *244:5 *244:9 47.8929 
3 *244:9 *244:19 36.25 
4 *244:19 *244:21 59.2857 
5 *244:21 *244:23 4.32143 
6 *244:23 *396:A1 16.3929 
7 *244:23 *244:36 5 
8 *244:36 *290:A1 8.25 
9 *244:36 *394:A2 7.75 
10 *244:21 *397:A 12.75 
*END

*D_NET *245 0.00372268
*CONN
*P req[36] I
*I *292:A2 I *D OR4_X1
*I *393:A2 I *D AND4_X1
*CAP
1 req[36] 0.000495402
2 *292:A2 1.32851e-05
3 *393:A2 5.03826e-05
4 *245:25 0.000297545
5 *245:19 0.000513415
6 *245:5 0.000774939
7 *292:A2 *292:A3 2.75346e-06
8 *292:A2 *401:A1 1.19839e-05
9 *292:A2 *247:29 9.90727e-06
10 *393:A2 *401:A1 1.66988e-05
11 *393:A2 *246:24 2.08098e-06
12 *245:5 *249:11 1.34787e-05
13 *245:5 *253:5 0.000124843
14 *245:19 *249:13 6.19563e-06
15 *245:19 *273:35 0
16 *245:25 *401:A1 6.26003e-05
17 *245:25 *248:21 0.000241286
18 *245:25 *273:35 0
19 *304:A *245:19 7.72792e-06
20 *310:A1 *245:5 7.72792e-06
21 *310:A3 *245:19 7.12153e-06
22 *311:A1 *245:19 0
23 *311:A2 *245:19 2.52965e-06
24 *341:A2 *245:5 7.16188e-07
25 *343:A1 *245:19 7.82427e-06
26 *345:A2 *245:19 1.90208e-06
27 *353:A2 *245:19 2.44072e-05
28 *385:A *245:19 1.32348e-05
29 *393:A3 *393:A2 2.62128e-05
30 *455:A1 *245:5 3.51654e-06
31 *474:A *245:25 1.36837e-05
32 *11:40 *245:19 4.41292e-05
33 *23:8 *245:19 3.10376e-06
34 *23:8 *245:25 0.000143976
35 *23:17 *245:19 5.31936e-05
36 *23:17 *245:25 1.03048e-06
37 *29:16 *245:5 1.04284e-05
38 *30:8 *245:19 1.59582e-06
39 *77:23 *245:25 4.12796e-06
40 *150:6 *245:19 1.7898e-05
41 *150:27 *245:19 4.97465e-05
42 *167:8 *245:19 2.77304e-05
43 *175:18 *292:A2 2.16072e-07
44 *176:8 *245:25 0.000215074
45 *176:19 *245:25 0.000120047
46 *192:14 *393:A2 7.16188e-07
47 *192:30 *292:A2 3.19164e-07
48 *192:30 *393:A2 3.09143e-06
49 *203:22 *393:A2 3.51536e-06
50 *210:10 *245:19 1.78996e-06
51 *218:9 *245:19 4.47286e-06
52 *223:9 *245:19 1.24488e-05
53 *237:5 *245:5 0.000115268
54 *237:5 *245:19 8.19765e-05
55 *241:11 *245:5 5.33865e-05
*RES
1 req[36] *245:5 66.0357 
2 *245:5 *245:19 49.4643 
3 *245:19 *245:25 42.75 
4 *245:25 *393:A2 16.0714 
5 *245:25 *292:A2 11.75 
*END

*D_NET *246 0.00307012
*CONN
*P req[37] I
*I *401:A1 I *D AND3_X1
*I *292:A1 I *D OR4_X1
*I *390:A I *D INV_X1
*CAP
1 req[37] 0.000288267
2 *401:A1 3.90908e-05
3 *292:A1 0
4 *390:A 0
5 *246:24 7.06884e-05
6 *246:13 7.22893e-05
7 *246:9 0.00042556
8 *246:7 0.000393582
9 *246:5 0.00029698
10 *401:A1 *247:29 4.32144e-07
11 *246:5 *256:5 0.000248268
12 *246:9 *256:5 0.000154787
13 *292:A2 *401:A1 1.19839e-05
14 *393:A2 *401:A1 1.66988e-05
15 *393:A2 *246:24 2.08098e-06
16 *393:A3 *401:A1 5.41015e-05
17 *393:A3 *246:24 5.41015e-05
18 *393:A4 *246:24 4.24402e-05
19 *401:A2 *401:A1 7.19036e-06
20 *404:A2 *401:A1 4.32144e-07
21 *12:12 *401:A1 7.83965e-06
22 *77:23 *401:A1 2.89018e-05
23 *184:8 *246:13 0
24 *192:14 *401:A1 4.78054e-06
25 *197:18 *246:9 0.000228573
26 *203:18 *246:13 3.49085e-06
27 *203:18 *246:24 1.39755e-05
28 *210:20 *246:9 0.0001001
29 *236:5 *246:5 0.00024705
30 *236:5 *246:9 0.000193833
31 *245:25 *401:A1 6.26003e-05
*RES
1 req[37] *246:5 51.4286 
2 *246:5 *246:7 0.928572 
3 *246:7 *246:9 65.3572 
4 *246:9 *246:13 8.64286 
5 *246:13 *390:A 10 
6 *246:13 *246:24 10.6786 
7 *246:24 *292:A1 5 
8 *246:24 *401:A1 21.8214 
*END

*D_NET *247 0.00595182
*CONN
*P req[38] I
*I *402:A I *D INV_X1
*I *292:A4 I *D OR4_X1
*I *391:A2 I *D NOR2_X1
*CAP
1 req[38] 0.000146476
2 *402:A 0
3 *292:A4 0
4 *391:A2 5.90612e-05
5 *247:29 0.00010209
6 *247:23 0.000367775
7 *247:13 0.000706854
8 *247:11 0.000382107
9 *247:9 0.00144231
10 *247:7 0.00158879
11 *391:A2 *292:A3 1.25215e-05
12 *391:A2 *391:A1 3.65322e-06
13 *391:A2 *248:46 0
14 *247:7 *259:5 0.000125514
15 *247:13 *278:15 0
16 *247:23 *278:15 1.58306e-05
17 grant[17] *247:13 0.000208264
18 grant[29] *247:13 0.000139675
19 grant[58] *247:9 0
20 *292:A2 *247:29 9.90727e-06
21 *356:A *247:13 7.72537e-06
22 *357:A2 *247:13 2.55787e-06
23 *394:A3 *247:23 0
24 *397:A *247:23 1.05916e-05
25 *398:A2 *247:23 3.80944e-05
26 *401:A1 *247:29 4.32144e-07
27 *404:A2 *247:23 3.88456e-06
28 *404:A2 *247:29 7.29164e-07
29 *461:A1 *247:23 0
30 *463:A3 *247:23 0
31 *474:B2 *247:23 0
32 *474:B2 *247:29 0
33 *10:12 *247:23 1.19839e-05
34 *11:14 *247:23 0
35 *43:33 *247:13 2.50108e-05
36 *43:33 *247:23 0
37 *43:52 *247:23 6.5577e-05
38 *77:10 *391:A2 3.27845e-05
39 *77:10 *247:29 7.72537e-06
40 *168:12 *247:9 0
41 *171:8 *247:13 6.82202e-07
42 *172:26 *247:13 0
43 *173:14 *247:9 0.000293044
44 *175:18 *247:23 0
45 *175:18 *247:29 7.34533e-06
46 *192:14 *391:A2 7.31355e-06
47 *220:9 *247:9 0
48 *227:15 *247:9 0
49 *243:5 *247:7 0.000125514
*RES
1 req[38] *247:7 31.0357 
2 *247:7 *247:9 138.679 
3 *247:9 *247:11 5 
4 *247:11 *247:13 55.25 
5 *247:13 *247:23 39.0357 
6 *247:23 *247:29 5.92857 
7 *247:29 *391:A2 12.6071 
8 *247:29 *292:A4 5 
9 *247:23 *402:A 5 
*END

*D_NET *248 0.00512876
*CONN
*P req[39] I
*I *405:A1 I *D AND2_X1
*I *391:A1 I *D NOR2_X1
*I *404:A1 I *D NOR3_X1
*I *292:A3 I *D OR4_X1
*CAP
1 req[39] 0.000256059
2 *405:A1 0
3 *391:A1 1.56632e-05
4 *404:A1 6.22031e-06
5 *292:A3 2.48246e-05
6 *248:46 5.79203e-05
7 *248:31 0.00010581
8 *248:25 5.98288e-05
9 *248:21 0.000196498
10 *248:17 0.000598376
11 *248:15 0.000557467
12 *248:11 0.000396769
13 *248:11 *251:11 6.37961e-06
14 *248:11 *251:13 0.000413027
15 *248:15 *251:13 3.95681e-05
16 *248:17 *251:31 0.000137758
17 *248:25 *261:35 7.49745e-06
18 *248:25 *265:41 2.04278e-05
19 *248:31 *261:35 1.68643e-06
20 *248:31 *265:41 1.19839e-05
21 grant[23] *248:11 2.49296e-05
22 grant[27] *248:11 0.000102535
23 grant[27] *248:15 1.15094e-06
24 *285:A *248:17 9.57492e-07
25 *292:A2 *292:A3 2.75346e-06
26 *306:A2 *248:17 1.83411e-06
27 *306:A4 *248:17 5.50692e-06
28 *348:A2 *248:17 0
29 *391:A2 *292:A3 1.25215e-05
30 *391:A2 *391:A1 3.65322e-06
31 *391:A2 *248:46 0
32 *393:A4 *292:A3 5.41015e-05
33 *393:A4 *248:31 3.02372e-05
34 *404:A2 *391:A1 1.21774e-06
35 *404:A2 *404:A1 3.045e-06
36 *404:A2 *248:46 7.68129e-06
37 *404:A3 *391:A1 2.94435e-05
38 *405:A2 *248:25 2.39679e-06
39 *405:A2 *248:31 7.19036e-06
40 *478:A *248:15 0
41 *478:A *248:17 2.04493e-05
42 *478:C1 *248:17 1.24656e-05
43 *478:C2 *248:17 2.52965e-06
44 *44:25 *248:17 0
45 *52:14 *248:17 0
46 *56:14 *248:15 0
47 *77:10 *248:46 1.2087e-05
48 *78:18 *248:31 0.000113248
49 *110:12 *248:15 0
50 *149:12 *248:17 0
51 *149:14 *248:15 0.000194581
52 *149:14 *248:17 0.000102787
53 *161:12 *248:15 3.58094e-06
54 *161:19 *248:11 3.56012e-06
55 *161:19 *248:15 1.1519e-06
56 *166:10 *248:17 9.65381e-05
57 *176:19 *248:21 0.000195877
58 *177:10 *391:A1 4.26902e-05
59 *178:10 *248:21 7.81217e-05
60 *178:21 *248:21 0.000648473
61 *185:40 *248:17 8.2756e-05
62 *192:14 *292:A3 9.57492e-07
63 *203:18 *292:A3 1.96924e-05
64 *203:18 *248:31 5.10109e-05
65 *245:25 *248:21 0.000241286
*RES
1 req[39] *248:11 43.3572 
2 *248:11 *248:15 19.9643 
3 *248:15 *248:17 54.75 
4 *248:17 *248:21 45.9643 
5 *248:21 *248:25 7.25 
6 *248:25 *248:31 13.9643 
7 *248:31 *292:A3 14.2143 
8 *248:31 *248:46 9.25 
9 *248:46 *404:A1 5.75 
10 *248:46 *391:A1 18.0357 
11 *248:25 *405:A1 5 
*END

*D_NET *249 0.00556756
*CONN
*P req[3] I
*I *319:A1 I *D NOR3_X1
*I *315:A1 I *D NOR2_X1
*I *313:A1 I *D NOR4_X4
*I *322:A1 I *D NAND2_X1
*CAP
1 req[3] 6.20736e-05
2 *319:A1 2.97263e-05
3 *315:A1 1.17463e-05
4 *313:A1 2.09882e-05
5 *322:A1 1.80592e-05
6 *249:39 4.67559e-05
7 *249:28 6.40861e-05
8 *249:17 0.000489373
9 *249:15 0.000433499
10 *249:13 0.000406788
11 *249:11 0.000468862
12 *249:11 *253:5 1.40405e-05
13 *249:11 *276:9 0.000105295
14 *249:17 *278:17 0.0011207
15 grant[50] *322:A1 1.55006e-06
16 *313:A2 *319:A1 2.52965e-06
17 *313:A3 *313:A1 1.39634e-05
18 *313:A3 *315:A1 2.16072e-07
19 *313:A4 *319:A1 1.62705e-06
20 *315:A2 *315:A1 4.78054e-06
21 *317:A1 *319:A1 1.21774e-06
22 *318:A *319:A1 3.28137e-06
23 *322:A2 *322:A1 1.21774e-06
24 *384:A2 *249:17 3.90162e-05
25 *385:A *249:13 5.52959e-06
26 *478:B *249:17 3.27142e-05
27 *484:B2 *249:17 6.05589e-05
28 *485:A1 *249:17 2.60834e-05
29 *485:A3 *249:17 1.46963e-05
30 *487:B2 *249:17 6.61827e-05
31 *32:37 *319:A1 5.94167e-07
32 *32:37 *249:28 1.1103e-06
33 *32:37 *249:39 6.81033e-07
34 *32:41 *313:A1 1.38665e-05
35 *32:41 *315:A1 1.80284e-05
36 *32:41 *319:A1 7.21602e-06
37 *70:43 *249:17 0
38 *74:8 *249:17 0.000131824
39 *167:8 *249:13 0.000267601
40 *168:6 *319:A1 2.39679e-06
41 *216:13 *322:A1 2.26625e-06
42 *218:9 *249:13 0.000870512
43 *237:5 *249:13 0.000245075
44 *238:13 *249:17 0.000104247
45 *238:13 *249:28 0.000102186
46 *238:26 *319:A1 4.18985e-05
47 *238:26 *249:28 1.23508e-05
48 *238:26 *249:39 1.66988e-05
49 *242:17 *249:17 0.000111565
50 *242:17 *249:28 3.06077e-05
51 *245:5 *249:11 1.34787e-05
52 *245:19 *249:13 6.19563e-06
*RES
1 req[3] *249:11 18.7143 
2 *249:11 *249:13 80.75 
3 *249:13 *249:15 5 
4 *249:15 *249:17 76.9286 
5 *249:17 *322:A1 11.75 
6 *249:17 *249:28 6.35715 
7 *249:28 *313:A1 13.25 
8 *249:28 *249:39 0.928572 
9 *249:39 *315:A1 11.75 
10 *249:39 *319:A1 14.0357 
*END

*D_NET *250 0.00634468
*CONN
*P req[40] I
*I *400:A1 I *D AND4_X1
*I *294:A2 I *D NOR4_X1
*CAP
1 req[40] 4.74211e-05
2 *400:A1 2.07409e-05
3 *294:A2 4.7078e-05
4 *250:33 0.0002613
5 *250:31 0.000419243
6 *250:23 0.000474496
7 *250:19 0.000341928
8 *250:11 0.000437408
9 *250:7 0.000391637
10 *294:A2 *399:A2 2.39679e-06
11 *294:A2 *251:37 1.01202e-05
12 *294:A2 *251:43 1.21774e-06
13 *294:A2 *269:43 0
14 *250:7 *276:17 1.80284e-05
15 *250:11 *276:17 1.97728e-05
16 *250:11 *277:13 3.32523e-05
17 *250:19 *282:A4 1.25215e-05
18 *250:19 *328:A 7.19036e-06
19 *250:19 *260:13 4.06083e-05
20 *250:19 *277:13 6.32664e-05
21 *250:19 *277:15 5.05375e-05
22 *250:23 *278:33 0
23 *250:31 *336:A1 2.4961e-05
24 *250:31 *495:A 2.4961e-05
25 *250:31 *273:45 3.026e-05
26 grant[39] *250:7 1.44187e-05
27 grant[40] *250:7 1.18891e-05
28 *283:A3 *250:31 0
29 *283:A4 *250:31 0
30 *331:A2 *250:23 1.43238e-06
31 *336:A2 *250:23 8.71251e-06
32 *336:A2 *250:31 5.66031e-06
33 *400:A2 *400:A1 2.39679e-06
34 *400:A4 *400:A1 1.18589e-06
35 *475:C1 *294:A2 0
36 *496:A1 *250:23 1.25215e-05
37 *2:8 *250:23 2.87703e-06
38 *2:14 *250:23 2.55787e-06
39 *3:12 *250:31 0
40 *21:22 *400:A1 2.85098e-05
41 *22:39 *400:A1 0
42 *31:34 *250:23 1.86809e-06
43 *31:40 *250:23 1.86809e-06
44 *42:23 *250:23 1.48929e-05
45 *47:8 *250:23 5.1203e-06
46 *101:50 *250:33 1.43544e-05
47 *176:23 *250:23 0.00040994
48 *176:23 *250:31 5.76174e-05
49 *178:33 *250:7 0
50 *178:33 *250:11 0
51 *178:33 *250:19 1.68643e-06
52 *178:33 *250:23 0.00013243
53 *180:8 *400:A1 0
54 *180:10 *250:33 0.000974142
55 *180:20 *250:31 3.05568e-05
56 *187:23 *294:A2 2.82617e-05
57 *187:23 *250:33 2.30574e-05
58 *197:10 *294:A2 7.93012e-05
59 *197:10 *250:33 0.00107652
60 *203:16 *250:31 0.000170263
61 *207:20 *250:11 0.000430215
62 *207:20 *250:19 2.00754e-05
63 *223:9 *250:19 0
*RES
1 req[40] *250:7 6.14286 
2 *250:7 *250:11 49.4286 
3 *250:11 *250:19 23.6429 
4 *250:19 *250:23 39.6786 
5 *250:23 *250:31 39.4286 
6 *250:31 *250:33 57.25 
7 *250:33 *294:A2 17.0714 
8 *250:33 *400:A1 12.75 
*END

*D_NET *251 0.00585346
*CONN
*P req[41] I
*I *294:A1 I *D NOR4_X1
*I *399:A1 I *D NOR3_X1
*I *412:A1 I *D NAND3_X1
*CAP
1 req[41] 3.70846e-05
2 *294:A1 0
3 *399:A1 0
4 *412:A1 5.19754e-05
5 *251:43 0.000115932
6 *251:37 0.000209604
7 *251:31 0.000387907
8 *251:27 0.000853244
9 *251:13 0.000838663
10 *251:11 0.000264764
11 *412:A1 *399:A2 2.39679e-06
12 *412:A1 *411:A 1.21774e-06
13 *412:A1 *261:39 3.23723e-07
14 *251:11 *276:13 2.89018e-05
15 *251:27 *254:31 0
16 *251:37 *424:A1 2.08098e-06
17 *251:37 *269:43 0
18 *251:43 *399:A2 2.72018e-05
19 grant[12] *251:11 1.3917e-06
20 *285:A *251:27 9.45614e-06
21 *286:A2 *251:27 0
22 *294:A2 *251:37 1.01202e-05
23 *294:A2 *251:43 1.21774e-06
24 *334:A2 *251:27 1.34564e-05
25 *400:A2 *251:43 6.56185e-06
26 *412:A2 *412:A1 2.75346e-06
27 *455:A1 *251:27 6.94703e-06
28 *476:C1 *412:A1 8.22137e-05
29 *486:A *251:31 0
30 *489:A1 *251:31 0
31 *492:B *251:27 2.38987e-06
32 *14:23 *251:37 1.00271e-05
33 *21:22 *251:37 2.61469e-06
34 *21:22 *251:43 7.16188e-07
35 *86:8 *412:A1 0.000108205
36 *86:10 *412:A1 9.44188e-05
37 *88:8 *412:A1 1.65484e-05
38 *94:27 *251:31 7.9915e-05
39 *112:12 *251:37 0.000462263
40 *115:16 *412:A1 1.43238e-06
41 *150:37 *251:11 3.38384e-05
42 *151:20 *251:27 0
43 *161:19 *251:11 1.19839e-05
44 *161:19 *251:13 0.000512024
45 *181:14 *251:27 0
46 *185:40 *251:31 2.08416e-06
47 *197:10 *251:37 0.00053761
48 *198:10 *412:A1 2.38026e-05
49 *198:16 *412:A1 2.15765e-06
50 *213:18 *251:27 6.48738e-06
51 *235:9 *251:27 6.48738e-06
52 *240:31 *251:27 0.000386309
53 *248:11 *251:11 6.37961e-06
54 *248:11 *251:13 0.000413027
55 *248:15 *251:13 3.95681e-05
56 *248:17 *251:31 0.000137758
*RES
1 req[41] *251:11 15.1429 
2 *251:11 *251:13 47.75 
3 *251:13 *251:27 42.4157 
4 *251:27 *251:31 36.25 
5 *251:31 *251:37 37.5 
6 *251:37 *251:43 7.60715 
7 *251:43 *412:A1 26.9286 
8 *251:43 *399:A1 5 
9 *251:37 *294:A1 5 
*END

*D_NET *252 0.00686067
*CONN
*P req[42] I
*I *294:A4 I *D NOR4_X1
*I *475:B I *D AOI211_X1
*I *399:A3 I *D NOR3_X1
*I *411:A I *D INV_X1
*CAP
1 req[42] 0.000755843
2 *294:A4 3.91667e-06
3 *475:B 2.28112e-05
4 *399:A3 2.96231e-05
5 *411:A 7.14102e-05
6 *252:39 3.26573e-05
7 *252:30 3.55525e-05
8 *252:17 0.000242449
9 *252:9 0.000565263
10 *252:7 0.000394225
11 *252:5 0.000755843
12 *294:A4 *399:A2 1.32323e-05
13 *399:A3 *399:A2 3.80944e-05
14 *411:A *253:45 8.59171e-06
15 *411:A *253:71 1.9254e-05
16 *411:A *253:82 2.3767e-06
17 *411:A *261:39 1.54598e-05
18 *411:A *267:17 0.000144279
19 *475:B *269:43 1.59582e-06
20 *252:5 *274:13 0.00147333
21 *252:9 *299:A3 1.07633e-05
22 *252:9 *434:A 3.20976e-05
23 *252:9 *268:9 0.000204813
24 *252:9 *268:11 6.32461e-06
25 *252:9 *269:57 9.60924e-05
26 *252:9 *270:21 1.91556e-05
27 *252:9 *270:23 2.87087e-05
28 *252:17 *253:82 2.84765e-06
29 *252:17 *267:17 0.000575262
30 *252:39 *399:A2 1.32348e-05
31 grant[7] *252:5 5.50756e-05
32 *412:A1 *411:A 1.21774e-06
33 *412:A2 *411:A 1.54649e-06
34 *415:A1 *411:A 3.51992e-06
35 *423:A3 *252:17 8.63585e-06
36 *459:B1 *252:9 1.45779e-05
37 *475:C1 *475:B 2.39679e-06
38 *475:C1 *252:17 1.43538e-06
39 *476:C1 *399:A3 3.83453e-06
40 *476:C1 *475:B 1.21774e-06
41 *476:C1 *252:39 1.60038e-06
42 *488:A1 *252:9 0.00016843
43 *14:23 *252:17 2.02955e-06
44 *21:10 *252:9 5.64879e-06
45 *21:10 *252:17 2.2287e-05
46 *21:14 *252:17 3.19303e-05
47 *21:16 *252:17 2.55821e-05
48 *21:22 *252:17 9.22998e-06
49 *94:10 *252:9 2.32054e-05
50 *94:27 *252:17 1.80284e-05
51 *101:10 *252:9 0.000167351
52 *101:50 *252:9 0.000126114
53 *146:24 *252:5 0.000203329
54 *180:10 *252:9 8.52505e-05
55 *186:12 *252:9 4.33419e-06
56 *186:12 *252:17 1.31338e-05
57 *186:18 *252:9 7.99669e-06
58 *187:12 *252:17 0.000107163
59 *187:23 *252:17 0
60 *197:10 *252:9 8.75903e-06
61 *204:18 *252:5 0.000117808
62 *222:5 *252:5 2.89355e-06
*RES
1 req[42] *252:5 135.536 
2 *252:5 *252:7 5 
3 *252:7 *252:9 67.4286 
4 *252:9 *252:17 44.0357 
5 *252:17 *411:A 21.4643 
6 *252:17 *252:30 5 
7 *252:30 *399:A3 8.75 
8 *252:30 *252:39 1.25 
9 *252:39 *475:B 7.85714 
10 *252:39 *294:A4 6.25 
*END

*D_NET *253 0.00428355
*CONN
*P req[43] I
*I *294:A3 I *D NOR4_X1
*I *399:A2 I *D NOR3_X1
*I *475:A I *D AOI211_X1
*I *414:A1 I *D NOR3_X1
*I *410:A I *D INV_X1
*CAP
1 req[43] 0.000457513
2 *294:A3 0
3 *399:A2 3.81219e-05
4 *475:A 0
5 *414:A1 3.00209e-05
6 *410:A 6.84078e-06
7 *253:82 5.03511e-05
8 *253:71 4.42079e-05
9 *253:45 0.000141407
10 *253:39 0.000206355
11 *253:33 0.00034208
12 *253:19 0.000487105
13 *253:5 0.000672369
14 *253:5 *257:7 2.60945e-06
15 *253:5 *257:9 0.000130244
16 *253:19 *257:19 1.30948e-05
17 *253:19 *257:23 0
18 *253:19 *269:23 7.07714e-06
19 *253:19 *273:23 1.97654e-05
20 *253:33 *257:23 0.0001158
21 *253:33 *269:39 0.000361301
22 *253:39 *261:35 4.0925e-07
23 *253:39 *261:39 0.000151285
24 *253:39 *269:43 1.66829e-05
25 *253:45 *267:13 0
26 *253:45 *267:17 1.13436e-05
27 *294:A2 *399:A2 2.39679e-06
28 *294:A4 *399:A2 1.32323e-05
29 *341:A2 *253:19 3.28116e-05
30 *343:A1 *253:19 4.32144e-07
31 *345:A4 *253:19 4.32144e-07
32 *360:A2 *253:5 2.73165e-05
33 *399:A3 *399:A2 3.80944e-05
34 *411:A *253:45 8.59171e-06
35 *411:A *253:71 1.9254e-05
36 *411:A *253:82 2.3767e-06
37 *412:A1 *399:A2 2.39679e-06
38 *414:A2 *414:A1 9.07548e-06
39 *415:A2 *410:A 1.87369e-06
40 *415:A2 *253:45 1.49938e-05
41 *455:A1 *253:5 1.87392e-05
42 *458:A3 *253:39 0.000110935
43 *462:A1 *253:19 1.39839e-06
44 *462:A2 *253:19 0
45 *463:A1 *253:19 3.93453e-05
46 *463:A2 *253:19 7.72537e-06
47 *463:A2 *253:33 6.42887e-07
48 *463:A3 *253:19 4.13157e-05
49 *463:A4 *253:19 4.47286e-06
50 *475:C1 *253:71 1.04526e-05
51 *475:C1 *253:82 1.045e-05
52 *475:C2 *253:45 5.38238e-05
53 *475:C2 *253:71 1.48912e-05
54 *11:36 *253:19 1.37817e-05
55 *29:16 *253:5 2.40703e-05
56 *29:16 *253:19 7.77781e-06
57 *30:8 *253:19 2.23552e-05
58 *49:14 *253:19 7.19036e-06
59 *49:21 *253:5 3.35414e-05
60 *49:21 *253:19 2.90448e-05
61 *83:26 *253:33 1.32323e-05
62 *83:28 *253:33 3.66781e-06
63 *86:16 *410:A 1.21774e-06
64 *86:16 *414:A1 3.13219e-05
65 *115:16 *414:A1 7.72792e-06
66 *118:8 *253:19 6.83929e-06
67 *178:10 *253:33 1.36816e-05
68 *182:12 *414:A1 5.48744e-06
69 *182:16 *414:A1 4.30477e-06
70 *183:14 *253:45 2.94119e-05
71 *184:8 *253:33 8.78664e-07
72 *187:23 *253:45 4.16195e-06
73 *187:23 *253:71 4.33419e-06
74 *198:16 *414:A1 3.07753e-05
75 *226:13 *253:5 1.31201e-05
76 *245:5 *253:5 0.000124843
77 *249:11 *253:5 1.40405e-05
78 *251:43 *399:A2 2.72018e-05
79 *252:17 *253:82 2.84765e-06
80 *252:39 *399:A2 1.32348e-05
*RES
1 req[43] *253:5 64.0357 
2 *253:5 *253:19 39.0357 
3 *253:19 *253:33 46.74 
4 *253:33 *253:39 24.25 
5 *253:39 *253:45 19.3214 
6 *253:45 *410:A 5.75 
7 *253:45 *414:A1 20.2143 
8 *253:39 *253:71 5 
9 *253:71 *475:A 10 
10 *253:71 *253:82 6.60714 
11 *253:82 *399:A2 10.75 
12 *253:82 *294:A3 5 
*END

*D_NET *254 0.00512443
*CONN
*P req[44] I
*I *408:A2 I *D AND4_X1
*I *302:A2 I *D NOR4_X1
*CAP
1 req[44] 0.000216735
2 *408:A2 0
3 *302:A2 3.3186e-05
4 *254:37 8.9447e-05
5 *254:31 0.000478154
6 *254:15 0.000654308
7 *254:9 0.000769793
8 *254:7 0.000754113
9 *302:A2 *302:A3 2.39679e-06
10 *302:A2 *255:37 8.08101e-06
11 *302:A2 *257:33 1.61803e-06
12 *254:9 *277:9 0
13 *254:31 *255:23 0
14 *254:37 *255:23 1.32452e-05
15 grant[30] *254:15 0.000408458
16 grant[50] *254:7 0.000146319
17 grant[53] *254:7 2.60945e-06
18 grant[54] *254:7 2.33081e-05
19 grant[55] *254:7 0
20 *285:A *254:31 2.90002e-06
21 *334:A2 *254:31 4.43661e-06
22 *366:A1 *254:31 2.3275e-05
23 *367:A3 *254:15 0
24 *376:A1 *254:31 3.07768e-05
25 *408:A1 *302:A2 1.32348e-05
26 *408:A1 *254:37 7.29164e-07
27 *408:A3 *302:A2 3.06406e-05
28 *408:A3 *254:37 2.75346e-06
29 *408:A4 *254:37 1.43238e-06
30 *470:A2 *254:37 7.16188e-07
31 *477:A1 *254:31 8.43215e-07
32 *477:A1 *254:37 6.48216e-07
33 *490:A *254:37 7.19036e-06
34 *491:A *254:31 6.03317e-05
35 *491:B1 *254:31 2.30024e-06
36 *491:C2 *254:31 8.43429e-06
37 *7:23 *254:31 2.2815e-05
38 *64:14 *254:15 6.85774e-07
39 *130:20 *254:31 1.76665e-06
40 *130:20 *254:37 2.26183e-05
41 *131:12 *254:31 3.48634e-05
42 *168:12 *254:9 0.000455566
43 *181:14 *254:31 0.000532668
44 *183:31 *254:31 1.01234e-05
45 *185:40 *254:31 9.43619e-06
46 *216:13 *254:7 4.31008e-05
47 *220:13 *254:15 0.000169507
48 *220:21 *254:31 2.34717e-05
49 *221:31 *254:31 5.39412e-06
50 *251:27 *254:31 0
*RES
1 req[44] *254:7 36.5357 
2 *254:7 *254:9 55.2143 
3 *254:9 *254:15 49.25 
4 *254:15 *254:31 47.4929 
5 *254:31 *254:37 7.92857 
6 *254:37 *302:A2 9.75 
7 *254:37 *408:A2 5 
*END

*D_NET *255 0.00520341
*CONN
*P req[45] I
*I *406:A I *D INV_X1
*I *420:A1 I *D AND3_X1
*I *302:A1 I *D NOR4_X1
*CAP
1 req[45] 0.000535982
2 *406:A 2.48481e-06
3 *420:A1 7.42934e-06
4 *302:A1 0
5 *255:37 7.96752e-05
6 *255:23 0.000284145
7 *255:9 0.000688975
8 *255:7 0.00047956
9 *255:5 0.000535982
10 *255:23 *257:33 5.92794e-05
11 *255:37 *257:33 8.32378e-06
12 *255:37 *265:43 1.59468e-05
13 grant[42] *255:5 0.000471911
14 grant[60] *255:5 0.000471352
15 *284:A *255:23 2.39679e-06
16 *287:A3 *255:23 7.72537e-06
17 *302:A2 *255:37 8.08101e-06
18 *311:A1 *255:9 0.000381386
19 *311:A1 *255:23 5.52217e-06
20 *333:A3 *255:9 8.9925e-05
21 *395:A *255:9 0.000102754
22 *396:A3 *255:9 0.000153403
23 *398:A2 *255:9 5.41015e-05
24 *408:A1 *406:A 4.325e-06
25 *408:A1 *255:37 2.39826e-06
26 *408:A3 *420:A1 2.70833e-06
27 *408:A3 *255:37 3.37286e-06
28 *461:A1 *255:9 2.51401e-05
29 *490:A *255:23 3.09143e-06
30 *491:A *255:23 3.29979e-05
31 *491:B1 *255:23 1.68829e-05
32 *11:51 *255:9 7.21983e-06
33 *11:59 *255:9 4.24122e-05
34 *11:59 *255:23 0
35 *21:69 *255:37 8.43215e-07
36 *30:14 *255:9 0.000146147
37 *30:23 *255:9 1.2453e-05
38 *43:12 *255:23 0
39 *44:10 *255:9 1.5027e-05
40 *44:10 *255:23 2.18457e-05
41 *130:20 *255:37 7.56974e-06
42 *131:12 *255:23 0
43 *152:12 *255:9 0.000168616
44 *172:24 *255:9 2.26306e-06
45 *174:10 *255:9 0
46 *184:8 *255:37 0
47 *187:33 *255:9 3.34509e-06
48 *189:29 *255:23 0.000175015
49 *243:9 *255:9 0
50 *243:17 *255:9 5.01494e-05
51 *254:31 *255:23 0
52 *254:37 *255:23 1.32452e-05
*RES
1 req[45] *255:5 97.0358 
2 *255:5 *255:7 5 
3 *255:7 *255:9 71.1607 
4 *255:9 *255:23 35.5179 
5 *255:23 *255:37 18.5 
6 *255:37 *302:A1 5 
7 *255:37 *420:A1 5.92857 
8 *255:23 *406:A 5.89286 
*END

*D_NET *256 0.00446504
*CONN
*P req[46] I
*I *421:A I *D INV_X1
*I *407:A2 I *D NOR2_X1
*I *302:A4 I *D NOR4_X1
*CAP
1 req[46] 0.000952844
2 *421:A 2.2895e-05
3 *407:A2 3.78189e-06
4 *302:A4 1.57355e-05
5 *256:13 4.96868e-05
6 *256:9 0.000434195
7 *256:7 0.00038113
8 *256:5 0.000952844
9 *302:A4 *302:A3 7.19036e-06
10 *302:A4 *257:33 2.39679e-06
11 *302:A4 *257:37 7.19036e-06
12 *302:A4 *265:43 4.44127e-06
13 *302:A4 *273:37 4.24423e-05
14 *407:A2 *257:37 3.09411e-06
15 *421:A *424:A1 4.17678e-05
16 *421:A *273:37 0
17 *256:5 *266:5 0.00028327
18 *256:9 *267:13 1.50871e-05
19 *256:9 *273:37 0
20 *256:13 *257:37 4.77786e-06
21 *256:13 *257:39 7.87807e-06
22 grant[15] *256:5 0
23 grant[35] *256:5 0
24 *423:A2 *421:A 4.12796e-06
25 *423:A2 *256:13 5.52959e-06
26 *85:10 *302:A4 2.94435e-05
27 *112:12 *421:A 7.49226e-05
28 *112:12 *256:9 0.000478844
29 *189:29 *407:A2 5.50692e-06
30 *189:29 *256:13 5.65794e-05
31 *197:10 *256:9 6.17085e-05
32 *197:16 *256:9 6.89308e-05
33 *197:18 *256:5 0
34 *210:20 *256:5 4.37483e-05
35 *246:5 *256:5 0.000248268
36 *246:9 *256:5 0.000154787
*RES
1 req[46] *256:5 132.036 
2 *256:5 *256:7 5 
3 *256:7 *256:9 53.1786 
4 *256:9 *256:13 10.25 
5 *256:13 *302:A4 18.0357 
6 *256:13 *407:A2 5.75 
7 *256:9 *421:A 14.3214 
*END

*D_NET *257 0.00435266
*CONN
*P req[47] I
*I *407:A1 I *D NOR2_X1
*I *302:A3 I *D NOR4_X1
*I *424:A1 I *D AND2_X1
*I *423:A1 I *D NOR3_X1
*CAP
1 req[47] 1.09704e-05
2 *407:A1 0
3 *302:A3 2.15494e-05
4 *424:A1 7.12484e-05
5 *423:A1 4.59121e-05
6 *257:39 0.000146007
7 *257:37 7.15976e-05
8 *257:33 0.000235712
9 *257:23 0.000488599
10 *257:19 0.000493439
11 *257:9 0.000575891
12 *257:7 0.000367511
13 *257:7 *261:7 1.3917e-06
14 *257:9 *261:7 8.26038e-06
15 *257:9 *261:9 0.000133673
16 *257:19 *261:9 2.95141e-05
17 *257:19 *265:19 0
18 *257:23 *261:35 0.000127603
19 *257:23 *265:33 0.000117025
20 *257:33 *269:39 6.48738e-06
21 *293:A *257:33 2.54754e-05
22 *302:A2 *302:A3 2.39679e-06
23 *302:A2 *257:33 1.61803e-06
24 *302:A4 *302:A3 7.19036e-06
25 *302:A4 *257:33 2.39679e-06
26 *302:A4 *257:37 7.19036e-06
27 *303:A1 *257:33 1.25431e-05
28 *343:A1 *257:19 1.25189e-05
29 *360:A2 *257:19 1.33042e-06
30 *403:A2 *257:23 7.19036e-06
31 *407:A2 *257:37 3.09411e-06
32 *408:A1 *302:A3 0
33 *408:A1 *257:37 0
34 *421:A *424:A1 4.17678e-05
35 *423:A2 *423:A1 5.1586e-05
36 *423:A2 *424:A1 5.47625e-05
37 *423:A2 *257:39 4.97191e-06
38 *457:A1 *423:A1 4.78054e-06
39 *457:A1 *424:A1 4.28905e-05
40 *458:A2 *257:23 1.28122e-06
41 *458:A3 *257:23 6.52138e-06
42 *462:A2 *257:19 4.5028e-05
43 *462:A2 *257:23 3.81282e-05
44 *463:A2 *257:23 0
45 *463:A4 *257:23 5.88117e-06
46 *469:B2 *257:19 4.32144e-07
47 *490:B2 *257:33 0.00011833
48 *12:21 *257:33 5.64879e-06
49 *21:69 *302:A3 0
50 *21:69 *424:A1 1.01255e-05
51 *21:69 *257:39 0
52 *22:14 *424:A1 0
53 *43:85 *257:23 2.35353e-05
54 *48:12 *257:19 3.94536e-05
55 *49:14 *257:19 1.31201e-05
56 *49:21 *257:19 2.20158e-05
57 *78:12 *257:23 7.72537e-06
58 *83:26 *257:23 2.83289e-05
59 *94:27 *424:A1 1.86809e-06
60 *112:12 *424:A1 4.56901e-05
61 *155:6 *257:19 3.23723e-07
62 *171:10 *257:19 4.62986e-06
63 *176:19 *257:33 1.13359e-05
64 *178:10 *257:23 4.21607e-06
65 *187:21 *423:A1 6.82202e-07
66 *189:29 *257:33 8.93487e-05
67 *203:18 *257:33 0.000191848
68 *225:17 *257:19 5.33113e-06
69 *225:23 *257:19 7.19036e-06
70 *226:13 *257:9 2.83972e-05
71 *226:13 *257:19 7.7664e-07
72 *226:21 *257:19 1.44215e-05
73 *226:44 *257:19 8.64288e-07
74 *251:37 *424:A1 2.08098e-06
75 *253:5 *257:7 2.60945e-06
76 *253:5 *257:9 0.000130244
77 *253:19 *257:19 1.30948e-05
78 *253:19 *257:23 0
79 *253:33 *257:23 0.0001158
80 *255:23 *257:33 5.92794e-05
81 *255:37 *257:33 8.32378e-06
82 *256:13 *257:37 4.77786e-06
83 *256:13 *257:39 7.87807e-06
*RES
1 req[47] *257:7 1.46429 
2 *257:7 *257:9 51.1429 
3 *257:9 *257:19 36.75 
4 *257:19 *257:23 48.75 
5 *257:23 *257:33 43.5 
6 *257:33 *257:37 2.67857 
7 *257:37 *257:39 3.75 
8 *257:39 *423:A1 10.25 
9 *257:39 *424:A1 25.9286 
10 *257:37 *302:A3 7.67857 
11 *257:33 *407:A1 5 
*END

*D_NET *258 0.00527735
*CONN
*P req[48] I
*I *295:A2 I *D OR4_X1
*I *419:A2 I *D AND4_X1
*CAP
1 req[48] 2.59339e-05
2 *295:A2 0
3 *419:A2 6.67725e-05
4 *258:21 7.13274e-05
5 *258:17 0.000265595
6 *258:15 0.00026104
7 *258:13 0.00185404
8 *258:11 0.00187997
9 *419:A2 *295:A3 1.73151e-05
10 *419:A2 *417:A2 0
11 *419:A2 *259:15 2.39679e-06
12 *258:11 *276:13 9.57798e-06
13 *258:17 *444:A 4.75762e-05
14 *258:17 *259:9 0.000309035
15 *258:17 *259:15 2.6099e-05
16 *258:21 *295:A3 2.75346e-06
17 *258:21 *429:A1 0
18 *258:21 *259:15 5.33113e-06
19 grant[37] *258:11 2.05033e-06
20 grant[39] *258:11 1.28122e-06
21 index[2] *258:11 1.01096e-05
22 *419:A1 *419:A2 7.19036e-06
23 *419:A4 *419:A2 8.43215e-07
24 *422:A1 *258:17 3.02351e-05
25 *429:A2 *419:A2 0
26 *15:8 *258:17 0.000210329
27 *92:27 *258:17 1.78091e-05
28 *180:26 *258:13 7.04121e-05
29 *188:8 *419:A2 0
30 *188:10 *258:17 0
31 *191:18 *258:17 4.75554e-05
32 *207:18 *258:13 2.5758e-05
33 *240:9 *258:11 9.0076e-06
*RES
1 req[48] *258:11 13.0714 
2 *258:11 *258:13 64.68 
3 *258:13 *258:15 5 
4 *258:15 *258:17 46 
5 *258:17 *258:21 5.75 
6 *258:21 *419:A2 11.9286 
7 *258:21 *295:A2 5 
*END

*D_NET *259 0.0055894
*CONN
*P req[49] I
*I *429:A1 I *D AND3_X1
*I *295:A1 I *D OR4_X1
*I *416:A I *D INV_X1
*CAP
1 req[49] 0.00108309
2 *429:A1 1.41785e-05
3 *295:A1 0
4 *416:A 6.41335e-05
5 *259:15 0.000109998
6 *259:9 0.000814263
7 *259:7 0.000754221
8 *259:5 0.00108309
9 *416:A *417:A2 3.80353e-05
10 *416:A *430:A1 0
11 *416:A *473:B1 9.58715e-06
12 *416:A *473:B2 1.73151e-05
13 *416:A *262:52 3.95236e-05
14 *429:A1 *295:A4 7.16188e-07
15 *259:5 *264:5 0.000614299
16 *259:5 *268:5 0
17 *259:9 *444:A 6.30564e-06
18 *259:9 *272:9 0.000173191
19 *259:9 *275:17 0
20 *419:A2 *259:15 2.39679e-06
21 *429:A2 *429:A1 2.39679e-06
22 *472:A *259:9 5.23715e-05
23 *473:A *259:15 2.16072e-07
24 *476:B *259:15 3.65322e-06
25 *92:27 *416:A 4.28691e-05
26 *92:27 *259:15 1.61002e-06
27 *92:29 *416:A 2.74386e-05
28 *243:5 *259:5 0.000168528
29 *244:5 *259:5 0
30 *247:7 *259:5 0.000125514
31 *258:17 *259:9 0.000309035
32 *258:17 *259:15 2.6099e-05
33 *258:21 *429:A1 0
34 *258:21 *259:15 5.33113e-06
*RES
1 req[49] *259:5 155.036 
2 *259:5 *259:7 5 
3 *259:7 *259:9 100.679 
4 *259:9 *259:15 11.0714 
5 *259:15 *416:A 24.3929 
6 *259:15 *295:A1 5 
7 *259:9 *429:A1 11.75 
*END

*D_NET *260 0.00234063
*CONN
*P req[4] I
*I *326:A2 I *D AND4_X1
*I *282:A2 I *D NOR4_X1
*CAP
1 req[4] 1.07821e-05
2 *326:A2 7.00507e-05
3 *282:A2 0
4 *260:13 0.000126112
5 *260:9 0.000330754
6 *260:7 0.000285475
7 *326:A2 *282:A4 1.38207e-05
8 *326:A2 *329:A2 1.61002e-06
9 *260:13 *282:A3 3.96416e-05
10 *260:13 *282:A4 4.80378e-06
11 grant[32] *260:7 1.3917e-06
12 grant[32] *260:9 0.000668008
13 index[2] *260:7 1.3917e-06
14 *326:A1 *326:A2 2.39679e-06
15 *326:A3 *326:A2 7.93012e-05
16 *326:A4 *326:A2 2.52965e-06
17 *329:A1 *326:A2 0
18 *329:A1 *260:13 0
19 *36:21 *326:A2 0
20 *41:10 *260:13 0
21 *176:23 *260:7 2.75346e-06
22 *176:23 *260:9 1.35888e-05
23 *180:28 *260:9 0.000631062
24 *201:10 *260:13 1.13438e-05
25 *206:6 *326:A2 1.68643e-06
26 *210:10 *260:13 1.52083e-06
27 *223:9 *326:A2 0
28 *250:19 *260:13 4.06083e-05
*RES
1 req[4] *260:7 1.46429 
2 *260:7 *260:9 61.75 
3 *260:9 *260:13 11.3571 
4 *260:13 *282:A2 10 
5 *260:13 *326:A2 18.7857 
*END

*D_NET *261 0.00567176
*CONN
*P req[50] I
*I *295:A4 I *D OR4_X1
*I *473:B1 I *D OAI21_X1
*I *417:A2 I *D NOR2_X1
*I *430:A1 I *D NAND2_X1
*CAP
1 req[50] 1.9358e-05
2 *295:A4 3.02891e-05
3 *473:B1 9.08977e-06
4 *417:A2 4.78101e-05
5 *430:A1 4.06772e-05
6 *261:54 5.68998e-05
7 *261:52 6.07571e-05
8 *261:41 0.000186647
9 *261:39 0.000405839
10 *261:35 0.000453222
11 *261:23 0.000590474
12 *261:9 0.000747704
13 *261:7 0.000339472
14 *295:A4 *295:A3 8.78832e-05
15 *417:A2 *417:A1 1.21774e-06
16 *430:A1 *473:B2 0
17 *430:A1 *262:52 0
18 *261:7 *265:17 5.71321e-06
19 *261:7 *269:13 3.19164e-07
20 *261:9 *269:13 0.000439519
21 *261:23 *269:23 0.000620847
22 *261:23 *273:23 0.000181093
23 *261:35 *265:33 0.000130639
24 *261:35 *265:41 1.82398e-05
25 *261:39 *265:41 7.6189e-06
26 *261:39 *269:43 6.34731e-06
27 *261:41 *262:13 0
28 *261:41 *262:24 0
29 *261:52 *295:A3 2.84314e-05
30 *403:A2 *261:35 1.68643e-06
31 *404:A3 *261:35 6.16696e-06
32 *405:A2 *261:35 7.19036e-06
33 *411:A *261:39 1.54598e-05
34 *412:A1 *261:39 3.23723e-07
35 *413:A2 *261:39 2.83077e-06
36 *415:A1 *261:39 0
37 *416:A *417:A2 3.80353e-05
38 *416:A *430:A1 0
39 *416:A *473:B1 9.58715e-06
40 *419:A1 *417:A2 3.19164e-07
41 *419:A2 *417:A2 0
42 *429:A1 *295:A4 7.16188e-07
43 *429:A2 *295:A4 3.23723e-07
44 *430:A2 *430:A1 2.05207e-05
45 *432:A2 *261:41 8.14241e-05
46 *433:A *261:39 0
47 *458:A3 *261:35 3.19164e-07
48 *460:A *261:39 0
49 *460:C1 *261:39 1.11792e-06
50 *461:A4 *261:39 0
51 *473:A *473:B1 7.19036e-06
52 *476:B *417:A2 0
53 *476:C1 *261:39 0
54 *78:12 *261:35 1.45225e-05
55 *89:6 *261:39 6.81701e-06
56 *92:27 *295:A4 7.58429e-05
57 *92:29 *295:A4 1.58502e-05
58 *92:29 *261:41 2.51997e-05
59 *92:29 *261:52 0.00010561
60 *99:12 *261:41 0
61 *115:16 *261:39 1.2087e-05
62 *147:22 *261:23 3.48117e-05
63 *155:6 *261:9 3.28194e-05
64 *178:10 *261:35 1.25215e-05
65 *191:10 *261:41 2.14728e-06
66 *191:10 *261:52 4.10092e-06
67 *192:10 *261:41 4.78905e-05
68 *205:10 *295:A4 2.26306e-06
69 *213:20 *261:23 3.21842e-05
70 *226:21 *261:23 1.32625e-05
71 *226:44 *261:23 5.96839e-05
72 *232:9 *261:23 3.50431e-06
73 *248:25 *261:35 7.49745e-06
74 *248:31 *261:35 1.68643e-06
75 *253:39 *261:35 4.0925e-07
76 *253:39 *261:39 0.000151285
77 *257:7 *261:7 1.3917e-06
78 *257:9 *261:7 8.26038e-06
79 *257:9 *261:9 0.000133673
80 *257:19 *261:9 2.95141e-05
81 *257:23 *261:35 0.000127603
*RES
1 req[50] *261:7 2.64286 
2 *261:7 *261:9 53.25 
3 *261:9 *261:23 42.9057 
4 *261:23 *261:35 26.2143 
5 *261:35 *261:39 40.1072 
6 *261:39 *261:41 15.8571 
7 *261:41 *430:A1 14.75 
8 *261:41 *261:52 5.67857 
9 *261:52 *261:54 5 
10 *261:54 *417:A2 10.9286 
11 *261:54 *473:B1 6.25 
12 *261:52 *295:A4 16.25 
*END

*D_NET *262 0.00496646
*CONN
*P req[51] I
*I *473:B2 I *D OAI21_X1
*I *295:A3 I *D OR4_X1
*I *417:A1 I *D NOR2_X1
*I *431:A1 I *D NOR2_X1
*I *432:A1 I *D NAND2_X1
*CAP
1 req[51] 0.00122869
2 *473:B2 1.39439e-05
3 *295:A3 4.84771e-05
4 *417:A1 4.29647e-05
5 *431:A1 6.35748e-06
6 *432:A1 4.66179e-05
7 *262:52 9.05459e-05
8 *262:35 0.000112857
9 *262:24 6.63713e-05
10 *262:13 0.000293343
11 *262:11 0.000454893
12 *262:5 0.0014551
13 grant[16] *262:5 0.000315481
14 grant[38] *262:5 0.00014076
15 grant[57] *262:5 0
16 grant[60] *262:5 0
17 index[0] *262:5 2.55331e-06
18 *295:A4 *295:A3 8.78832e-05
19 *416:A *473:B2 1.73151e-05
20 *416:A *262:52 3.95236e-05
21 *417:A2 *417:A1 1.21774e-06
22 *419:A1 *417:A1 1.1067e-05
23 *419:A2 *295:A3 1.73151e-05
24 *430:A1 *473:B2 0
25 *430:A1 *262:52 0
26 *430:A2 *431:A1 7.19036e-06
27 *430:A2 *432:A1 8.94115e-06
28 *431:A2 *262:24 3.02351e-05
29 *431:A2 *262:35 2.49497e-05
30 *432:A2 *432:A1 3.09411e-06
31 *91:8 *417:A1 1.72405e-05
32 *191:10 *295:A3 3.82152e-06
33 *191:10 *417:A1 4.92317e-06
34 *191:10 *262:24 1.52083e-06
35 *191:10 *262:35 4.45814e-05
36 *192:10 *262:11 0
37 *192:10 *262:13 2.40398e-05
38 *202:8 *417:A1 0
39 *205:10 *295:A3 1.38678e-05
40 *232:5 *262:5 0.000257589
41 *258:21 *295:A3 2.75346e-06
42 *261:41 *262:13 0
43 *261:41 *262:24 0
44 *261:52 *295:A3 2.84314e-05
*RES
1 req[51] *262:5 162.036 
2 *262:5 *262:11 30.7679 
3 *262:11 *262:13 27.0536 
4 *262:13 *432:A1 15.25 
5 *262:13 *262:24 2.28572 
6 *262:24 *431:A1 10.75 
7 *262:24 *262:35 6.35715 
8 *262:35 *417:A1 15.6429 
9 *262:35 *262:52 8.75 
10 *262:52 *295:A3 22.4286 
11 *262:52 *473:B2 6.75 
*END

*D_NET *263 0.00375268
*CONN
*P req[52] I
*I *300:A2 I *D OR4_X4
*I *428:A2 I *D AND4_X1
*CAP
1 req[52] 3.92908e-05
2 *300:A2 0
3 *428:A2 4.98834e-05
4 *263:41 9.78269e-05
5 *263:35 0.000316248
6 *263:27 0.000823034
7 *263:17 0.000779347
8 *263:11 0.000263909
9 *263:35 *440:A 6.83923e-07
10 *263:35 *266:27 0
11 *263:35 *266:33 1.22998e-05
12 *263:41 *441:A2 3.31354e-05
13 *263:41 *264:9 5.94167e-07
14 *263:41 *265:54 2.13573e-06
15 *263:41 *266:33 0
16 grant[18] *263:17 0.000115731
17 grant[20] *263:11 2.05033e-06
18 grant[22] *263:11 2.05033e-06
19 grant[8] *263:17 0.000446849
20 index[5] *263:17 8.11413e-05
21 *428:A1 *428:A2 2.77436e-05
22 *428:A3 *428:A2 6.755e-05
23 *428:A3 *263:41 2.97531e-05
24 *443:A1 *263:35 2.09855e-05
25 *443:A2 *263:35 2.37137e-05
26 *482:A *263:35 8.98274e-07
27 *483:A *263:35 5.15352e-05
28 *483:C1 *263:35 8.26038e-06
29 *483:C2 *263:35 3.79186e-05
30 *485:A2 *263:35 5.45362e-05
31 *488:A1 *263:35 0
32 *489:A2 *263:35 5.49947e-05
33 *489:A3 *263:35 1.37673e-05
34 *96:19 *263:35 2.94407e-06
35 *96:32 *263:41 1.60643e-05
36 *118:8 *263:27 9.11786e-07
37 *151:20 *263:27 6.76724e-05
38 *159:23 *263:17 4.7181e-06
39 *163:18 *263:27 0
40 *164:12 *263:17 5.05238e-06
41 *196:14 *263:35 4.57215e-05
42 *212:12 *263:35 0.000121293
43 *240:9 *263:11 1.36901e-05
44 *242:17 *263:27 1.67442e-05
*RES
1 req[52] *263:11 14.1786 
2 *263:11 *263:17 46.5357 
3 *263:17 *263:27 34.4443 
4 *263:27 *263:35 46.2857 
5 *263:35 *263:41 12.0714 
6 *263:41 *428:A2 12.4286 
7 *263:41 *300:A2 5 
*END

*D_NET *264 0.00459559
*CONN
*P req[53] I
*I *300:A1 I *D OR4_X4
*I *438:A1 I *D AND2_X1
*I *425:A I *D INV_X1
*CAP
1 req[53] 0.000774373
2 *300:A1 0
3 *438:A1 9.82867e-05
4 *425:A 1.59191e-05
5 *264:11 0.000121565
6 *264:9 0.000694172
7 *264:7 0.000686813
8 *264:5 0.000774373
9 *425:A *300:A3 2.96955e-05
10 *425:A *441:A2 1.2203e-05
11 *425:A *459:B2 5.62244e-05
12 *425:A *265:43 3.02351e-05
13 *425:A *265:54 3.74027e-05
14 *438:A1 *300:A4 2.39679e-06
15 *438:A1 *266:33 0
16 *438:A1 *266:37 1.68643e-06
17 *264:5 *279:5 0.000429949
18 *264:9 *441:A2 1.88334e-06
19 *264:9 *273:37 7.71867e-05
20 *264:11 *300:A3 2.57414e-05
21 *264:11 *441:A2 3.92905e-05
22 *264:11 *273:37 5.11191e-06
23 *428:A1 *438:A1 1.59548e-05
24 *438:A2 *438:A1 3.77377e-05
25 *471:B2 *438:A1 0
26 *96:19 *438:A1 0
27 *97:10 *438:A1 1.22742e-05
28 *103:8 *438:A1 2.16072e-07
29 *259:5 *264:5 0.000614299
30 *263:41 *264:9 5.94167e-07
*RES
1 req[53] *264:5 126.536 
2 *264:5 *264:7 5 
3 *264:7 *264:9 73.5357 
4 *264:9 *264:11 2.28572 
5 *264:11 *425:A 14.3214 
6 *264:11 *438:A1 21.4286 
7 *264:9 *300:A1 10 
*END

*D_NET *265 0.00514428
*CONN
*P req[54] I
*I *441:A2 I *D AND3_X1
*I *300:A4 I *D OR4_X4
*I *427:A2 I *D NOR2_X1
*CAP
1 req[54] 5.12811e-05
2 *441:A2 4.85501e-05
3 *300:A4 7.36638e-06
4 *427:A2 6.90492e-06
5 *265:54 7.21466e-05
6 *265:43 0.000475302
7 *265:41 0.000562417
8 *265:33 0.000368018
9 *265:29 0.000317353
10 *265:19 0.000466518
11 *265:17 0.000458213
12 *300:A4 *266:33 7.19036e-06
13 *300:A4 *266:37 2.39679e-06
14 *427:A2 *266:33 1.68643e-06
15 *427:A2 *266:37 8.43215e-07
16 *441:A2 *266:27 2.94407e-06
17 *441:A2 *266:33 4.74642e-06
18 *265:17 *269:13 2.36093e-05
19 *265:17 *273:13 1.36051e-05
20 *265:17 *276:9 5.86754e-06
21 *265:19 *269:13 2.22018e-05
22 *265:19 *273:13 0.000421987
23 *265:43 *459:B2 8.56923e-06
24 *265:43 *273:37 0.000152328
25 *302:A4 *265:43 4.44127e-06
26 *305:A2 *265:19 0
27 *342:A1 *265:29 1.01247e-05
28 *342:A3 *265:29 3.09143e-06
29 *358:A2 *265:29 8.60151e-06
30 *358:A4 *265:19 0
31 *358:A4 *265:29 4.15369e-06
32 *359:A1 *265:19 1.11792e-06
33 *359:A2 *265:19 4.12459e-06
34 *359:A3 *265:19 7.72792e-06
35 *392:A3 *265:43 0
36 *404:A3 *265:43 0
37 *425:A *441:A2 1.2203e-05
38 *425:A *265:43 3.02351e-05
39 *425:A *265:54 3.74027e-05
40 *428:A3 *441:A2 5.71685e-06
41 *438:A1 *300:A4 2.39679e-06
42 *441:A1 *441:A2 2.39679e-06
43 *461:A1 *265:33 8.24917e-06
44 *461:A4 *265:33 0
45 *461:A4 *265:41 0.000117343
46 *463:A3 *265:33 0.000142555
47 *469:B2 *265:19 8.43215e-07
48 *492:A *441:A2 2.39679e-06
49 *11:14 *265:29 1.26998e-05
50 *11:14 *265:33 0.000141837
51 *25:12 *265:19 0
52 *43:85 *265:33 3.33008e-05
53 *48:12 *265:29 3.46456e-05
54 *49:14 *265:19 5.69909e-06
55 *49:14 *265:29 0
56 *85:10 *265:43 0.000114989
57 *96:19 *427:A2 1.39839e-06
58 *96:32 *265:43 0
59 *96:32 *265:54 0
60 *130:20 *265:43 5.56778e-06
61 *155:6 *265:19 0.000479006
62 *157:18 *265:19 0
63 *226:44 *265:19 3.93465e-06
64 *233:5 *265:19 0
65 *248:25 *265:41 2.04278e-05
66 *248:31 *265:41 1.19839e-05
67 *255:37 *265:43 1.59468e-05
68 *257:19 *265:19 0
69 *257:23 *265:33 0.000117025
70 *261:7 *265:17 5.71321e-06
71 *261:35 *265:33 0.000130639
72 *261:35 *265:41 1.82398e-05
73 *261:39 *265:41 7.6189e-06
74 *263:41 *441:A2 3.31354e-05
75 *263:41 *265:54 2.13573e-06
76 *264:9 *441:A2 1.88334e-06
77 *264:11 *441:A2 3.92905e-05
*RES
1 req[54] *265:17 16.75 
2 *265:17 *265:19 66.25 
3 *265:19 *265:29 17.4643 
4 *265:29 *265:33 42.7143 
5 *265:33 *265:41 21.2857 
6 *265:41 *265:43 54.5357 
7 *265:43 *427:A2 10.75 
8 *265:43 *265:54 2.28572 
9 *265:54 *300:A4 10.75 
10 *265:54 *441:A2 17.7143 
*END

*D_NET *266 0.00606887
*CONN
*P req[55] I
*I *440:A I *D INV_X1
*I *427:A1 I *D NOR2_X1
*I *300:A3 I *D OR4_X4
*I *459:B2 I *D OAI21_X1
*CAP
1 req[55] 0.00037381
2 *440:A 4.84274e-06
3 *427:A1 0
4 *300:A3 9.52665e-06
5 *459:B2 7.67657e-05
6 *266:37 9.35462e-05
7 *266:33 4.80143e-05
8 *266:27 0.000339347
9 *266:23 0.000436691
10 *266:9 0.000769878
11 *266:7 0.000626931
12 *266:5 0.00037381
13 *300:A3 *273:37 5.1189e-05
14 *459:B2 *273:37 8.14241e-05
15 *266:5 *276:7 1.17923e-05
16 grant[15] *266:5 0.000139174
17 *300:A4 *266:33 7.19036e-06
18 *300:A4 *266:37 2.39679e-06
19 *357:A2 *266:9 9.30649e-05
20 *373:A3 *266:9 1.45945e-05
21 *425:A *300:A3 2.96955e-05
22 *425:A *459:B2 5.62244e-05
23 *427:A2 *266:33 1.68643e-06
24 *427:A2 *266:37 8.43215e-07
25 *438:A1 *266:33 0
26 *438:A1 *266:37 1.68643e-06
27 *441:A1 *266:27 1.26998e-05
28 *441:A2 *266:27 2.94407e-06
29 *441:A2 *266:33 4.74642e-06
30 *443:A1 *440:A 2.39679e-06
31 *443:A1 *266:27 6.02349e-06
32 *443:A1 *266:33 0
33 *487:A1 *266:23 1.22877e-05
34 *487:A2 *266:23 6.08871e-07
35 *487:B1 *266:23 1.06474e-05
36 *487:B1 *266:27 4.6613e-07
37 *488:A1 *459:B2 8.67675e-05
38 *492:A *266:27 8.72242e-05
39 *492:C1 *266:27 2.2287e-05
40 *492:C2 *266:27 0.000163378
41 *20:16 *459:B2 1.11672e-05
42 *29:10 *266:23 4.12459e-06
43 *29:14 *266:9 1.70594e-05
44 *56:10 *266:9 3.11899e-05
45 *57:8 *266:9 7.41144e-05
46 *96:19 *459:B2 9.47042e-05
47 *96:19 *266:33 0
48 *96:19 *266:37 0
49 *123:8 *266:9 0.00069444
50 *140:12 *266:27 3.61652e-05
51 *166:10 *266:9 3.38564e-05
52 *175:30 *266:9 6.1728e-05
53 *196:14 *266:27 3.92754e-05
54 *209:16 *266:27 6.48216e-07
55 *210:10 *266:9 0
56 *210:20 *266:9 0
57 *211:8 *266:23 0.000177484
58 *212:16 *266:23 2.54807e-06
59 *212:16 *266:27 0.000227326
60 *215:32 *266:23 1.81436e-05
61 *215:42 *266:9 2.63004e-05
62 *215:42 *266:23 7.11436e-05
63 *224:9 *266:9 1.59336e-05
64 *229:9 *266:9 4.43536e-05
65 *256:5 *266:5 0.00028327
66 *263:35 *440:A 6.83923e-07
67 *263:35 *266:27 0
68 *263:35 *266:33 1.22998e-05
69 *263:41 *266:33 0
70 *264:11 *300:A3 2.57414e-05
71 *265:43 *459:B2 8.56923e-06
*RES
1 req[55] *266:5 59.0357 
2 *266:5 *266:7 5 
3 *266:7 *266:9 80.3215 
4 *266:9 *266:23 27.7143 
5 *266:23 *266:27 47 
6 *266:27 *266:33 5.28572 
7 *266:33 *266:37 5.75 
8 *266:37 *459:B2 25.25 
9 *266:37 *300:A3 12.9643 
10 *266:33 *427:A1 5 
11 *266:27 *440:A 5.89286 
*END

*D_NET *267 0.00684776
*CONN
*P req[56] I
*I *299:A2 I *D OR4_X2
*I *437:A2 I *D AND4_X1
*CAP
1 req[56] 0.000925585
2 *299:A2 4.43313e-05
3 *437:A2 2.11167e-05
4 *267:29 0.000250634
5 *267:17 0.000424228
6 *267:15 0.000239041
7 *267:13 0.000320054
8 *267:5 0.00124564
9 *299:A2 *299:A3 2.39679e-06
10 *299:A2 *299:A4 4.12459e-06
11 *299:A2 *446:A1 1.07788e-05
12 *299:A2 *270:38 2.30024e-06
13 *267:17 *269:47 0.000684766
14 *267:29 *269:47 4.30074e-05
15 *267:29 *269:57 2.62701e-05
16 grant[42] *267:5 0.000649142
17 index[1] *267:5 0.000177405
18 *411:A *267:17 0.000144279
19 *412:A2 *267:17 2.84765e-06
20 *19:12 *299:A2 2.82617e-05
21 *19:12 *267:29 8.76632e-05
22 *87:8 *267:17 1.36901e-05
23 *101:56 *437:A2 2.77965e-05
24 *111:10 *267:29 3.53129e-05
25 *183:14 *267:17 2.03683e-05
26 *186:12 *267:17 4.78324e-06
27 *186:12 *267:29 0.000139517
28 *187:23 *267:13 3.20904e-05
29 *187:23 *267:17 0
30 *192:14 *267:13 1.47255e-05
31 *194:14 *299:A2 7.5597e-05
32 *194:14 *267:29 0.000334844
33 *197:16 *267:13 0.000158602
34 *198:10 *267:17 5.32476e-06
35 *198:16 *267:17 4.60245e-05
36 *203:16 *437:A2 3.51992e-06
37 *252:17 *267:17 0.000575262
38 *253:45 *267:13 0
39 *253:45 *267:17 1.13436e-05
40 *256:9 *267:13 1.50871e-05
*RES
1 req[56] *267:5 133.536 
2 *267:5 *267:13 49.25 
3 *267:13 *267:15 5 
4 *267:15 *267:17 53.3572 
5 *267:17 *267:29 37.25 
6 *267:29 *437:A2 12.75 
7 *267:29 *299:A2 17.0714 
*END

*D_NET *268 0.00400707
*CONN
*P req[57] I
*I *299:A1 I *D OR4_X2
*I *446:A1 I *D AND3_X1
*I *434:A I *D INV_X1
*CAP
1 req[57] 0.000987983
2 *299:A1 0
3 *446:A1 4.85563e-05
4 *434:A 3.32143e-05
5 *268:11 8.6275e-05
6 *268:9 0.000364046
7 *268:7 0.000359541
8 *268:5 0.000987983
9 *434:A *269:57 3.20976e-05
10 *446:A1 *270:38 0
11 *268:9 *269:57 1.36811e-05
12 *268:9 *269:72 4.26134e-05
13 *268:11 *269:57 4.80378e-06
14 *299:A2 *446:A1 1.07788e-05
15 *437:A4 *446:A1 2.16491e-05
16 *446:A2 *446:A1 1.19839e-05
17 *194:14 *268:9 5.82001e-06
18 *235:5 *268:5 0.000243357
19 *239:5 *268:5 4.59642e-05
20 *244:5 *268:5 0.000463493
21 *252:9 *434:A 3.20976e-05
22 *252:9 *268:9 0.000204813
23 *252:9 *268:11 6.32461e-06
24 *259:5 *268:5 0
*RES
1 req[57] *268:5 136.536 
2 *268:5 *268:7 5 
3 *268:7 *268:9 46.3929 
4 *268:9 *268:11 0.928572 
5 *268:11 *434:A 15 
6 *268:11 *446:A1 15.75 
7 *268:9 *299:A1 10 
*END

*D_NET *269 0.00738074
*CONN
*P req[58] I
*I *447:A I *D INV_X1
*I *436:A2 I *D NOR2_X1
*I *299:A4 I *D OR4_X2
*CAP
1 req[58] 0.000245173
2 *447:A 0
3 *436:A2 0.000102586
4 *299:A4 8.15538e-06
5 *269:72 0.000174153
6 *269:57 0.000278567
7 *269:47 0.000387125
8 *269:43 0.000347575
9 *269:39 0.000384842
10 *269:23 0.000677946
11 *269:13 0.000697571
12 *299:A4 *299:A3 2.39679e-06
13 *299:A4 *270:38 1.26998e-05
14 *269:13 *273:13 1.3917e-06
15 *269:23 *273:23 4.32036e-05
16 *269:43 *273:35 1.88398e-05
17 grant[50] *436:A2 1.02178e-05
18 grant[50] *269:72 7.67361e-06
19 *294:A2 *269:43 0
20 *299:A2 *299:A4 4.12459e-06
21 *434:A *269:57 3.20976e-05
22 *456:A3 *436:A2 0
23 *458:A3 *269:43 0.000144358
24 *459:B1 *269:57 4.24381e-05
25 *463:A2 *269:39 6.28578e-05
26 *475:B *269:43 1.59582e-06
27 *475:C2 *269:43 1.26998e-05
28 *476:C1 *269:43 8.90245e-06
29 *19:12 *269:57 0.000334324
30 *19:12 *269:72 2.51997e-05
31 *20:16 *269:57 0
32 *83:28 *269:39 1.83737e-05
33 *94:10 *269:57 1.07788e-05
34 *111:10 *269:47 0.000236572
35 *155:6 *269:13 0.000144737
36 *178:10 *269:39 4.10252e-06
37 *178:21 *269:39 1.62382e-06
38 *186:12 *269:57 0.00023445
39 *188:16 *436:A2 5.12483e-05
40 *188:16 *269:72 4.74299e-05
41 *194:14 *269:72 1.76744e-05
42 *198:10 *269:47 0.000122344
43 *199:18 *436:A2 0
44 *200:29 *436:A2 0
45 *203:18 *269:39 7.06488e-06
46 *211:12 *269:13 0
47 *251:37 *269:43 0
48 *252:9 *269:57 9.60924e-05
49 *253:19 *269:23 7.07714e-06
50 *253:33 *269:39 0.000361301
51 *253:39 *269:43 1.66829e-05
52 *257:33 *269:39 6.48738e-06
53 *261:7 *269:13 3.19164e-07
54 *261:9 *269:13 0.000439519
55 *261:23 *269:23 0.000620847
56 *261:39 *269:43 6.34731e-06
57 *265:17 *269:13 2.36093e-05
58 *265:19 *269:13 2.22018e-05
59 *267:17 *269:47 0.000684766
60 *267:29 *269:47 4.30074e-05
61 *267:29 *269:57 2.62701e-05
62 *268:9 *269:57 1.36811e-05
63 *268:9 *269:72 4.26134e-05
64 *268:11 *269:57 4.80378e-06
*RES
1 req[58] *269:13 49.1429 
2 *269:13 *269:23 35.1686 
3 *269:23 *269:39 49.0243 
4 *269:39 *269:43 26.75 
5 *269:43 *269:47 47.3214 
6 *269:47 *269:57 42.25 
7 *269:57 *299:A4 11.25 
8 *269:57 *269:72 16.1071 
9 *269:72 *436:A2 26.7857 
10 *269:72 *447:A 5 
*END

*D_NET *270 0.00415693
*CONN
*P req[59] I
*I *448:A1 I *D NOR3_X1
*I *449:A1 I *D AND2_X1
*I *436:A1 I *D NOR2_X1
*I *299:A3 I *D OR4_X2
*CAP
1 req[59] 0.000410036
2 *448:A1 5.10135e-05
3 *449:A1 0
4 *436:A1 3.34137e-05
5 *299:A3 2.72594e-05
6 *270:38 9.44351e-05
7 *270:23 0.00011393
8 *270:21 9.49736e-05
9 *270:17 0.000370442
10 *270:15 0.000429274
11 *270:5 0.000487178
12 grant[43] *270:5 2.05033e-06
13 grant[46] *270:5 4.29855e-06
14 grant[48] *270:17 0.000106177
15 grant[50] *270:17 6.56007e-06
16 *299:A2 *299:A3 2.39679e-06
17 *299:A2 *270:38 2.30024e-06
18 *299:A4 *299:A3 2.39679e-06
19 *299:A4 *270:38 1.26998e-05
20 *326:A1 *270:5 2.97531e-05
21 *326:A3 *270:15 6.32461e-06
22 *446:A1 *270:38 0
23 *448:A2 *448:A1 1.26998e-05
24 *448:A3 *436:A1 6.707e-06
25 *449:A2 *436:A1 2.39679e-06
26 *449:A2 *270:38 1.26998e-05
27 *101:50 *299:A3 0
28 *102:10 *436:A1 1.50843e-05
29 *157:10 *270:15 0
30 *183:35 *270:17 0.000404982
31 *186:18 *299:A3 5.86754e-06
32 *186:18 *270:21 1.09659e-05
33 *186:18 *270:23 1.70033e-05
34 *186:20 *270:17 0.000760799
35 *188:16 *448:A1 8.07358e-05
36 *188:16 *270:17 3.12278e-05
37 *190:10 *270:15 1.87059e-05
38 *197:8 *299:A3 2.14856e-06
39 *199:18 *448:A1 1.38841e-05
40 *199:18 *270:38 1.26374e-05
41 *199:20 *270:5 0.000106583
42 *200:10 *436:A1 7.11918e-06
43 *203:8 *436:A1 0
44 *206:6 *270:5 0.000221466
45 *220:7 *270:5 2.36273e-05
46 *223:9 *270:15 0
47 *238:5 *270:5 4.40537e-05
48 *252:9 *299:A3 1.07633e-05
49 *252:9 *270:21 1.91556e-05
50 *252:9 *270:23 2.87087e-05
*RES
1 req[59] *270:5 61.0357 
2 *270:5 *270:15 18.1786 
3 *270:15 *270:17 71.75 
4 *270:17 *270:21 7.96429 
5 *270:21 *270:23 4.32143 
6 *270:23 *299:A3 13.8571 
7 *270:23 *270:38 12.75 
8 *270:38 *436:A1 9.75 
9 *270:38 *449:A1 5 
10 *270:21 *448:A1 17.75 
*END

*D_NET *271 0.00333279
*CONN
*P req[5] I
*I *324:A I *D INV_X1
*I *327:A1 I *D AND3_X2
*I *282:A1 I *D NOR4_X1
*CAP
1 req[5] 3.42207e-05
2 *324:A 0
3 *327:A1 9.56928e-06
4 *282:A1 0
5 *271:25 5.33593e-05
6 *271:17 9.48095e-05
7 *271:13 0.000296743
8 *271:11 0.000245723
9 *271:9 0.000318139
10 *271:7 0.000352359
11 *271:17 *325:A1 2.39679e-06
12 *271:17 *276:17 1.70597e-05
13 *271:25 *325:A1 4.18985e-05
14 *271:25 *276:21 4.98241e-05
15 grant[34] *271:7 1.42277e-05
16 grant[34] *271:9 4.373e-05
17 grant[41] *271:7 2.60945e-06
18 grant[45] *271:7 5.43035e-06
19 grant[45] *271:9 0.000183145
20 *455:A3 *271:13 0.000103707
21 *484:A1 *327:A1 1.76665e-06
22 *484:A1 *271:25 8.43215e-07
23 *40:6 *271:25 3.28137e-06
24 *151:20 *271:13 8.84643e-06
25 *157:10 *271:25 5.41015e-05
26 *165:8 *271:13 7.90491e-05
27 *189:39 *271:9 1.07997e-05
28 *201:10 *271:25 0
29 *206:6 *271:17 3.26982e-05
30 *207:20 *271:25 6.06647e-05
31 *220:13 *271:9 6.96372e-05
32 *226:9 *271:13 0.000872929
33 *235:9 *271:13 0.000241609
34 *235:50 *271:9 2.76156e-05
*RES
1 req[5] *271:7 4.64286 
2 *271:7 *271:9 46.75 
3 *271:9 *271:11 5 
4 *271:11 *271:13 47.75 
5 *271:13 *271:17 12.25 
6 *271:17 *271:25 18.7143 
7 *271:25 *282:A1 5 
8 *271:25 *327:A1 5.92857 
9 *271:17 *324:A 5 
*END

*D_NET *272 0.0043591
*CONN
*P req[60] I
*I *298:A2 I *D OR4_X4
*I *435:A2 I *D NOR4_X1
*I *444:A I *D INV_X1
*CAP
1 req[60] 0.00122931
2 *298:A2 0
3 *435:A2 4.02165e-05
4 *444:A 2.77354e-05
5 *272:26 0.000106315
6 *272:9 0.000370512
7 *272:5 0.00150599
8 *435:A2 *298:A1 2.84765e-06
9 *435:A2 *273:55 2.34855e-05
10 *272:5 *275:13 0.000248422
11 *272:9 *275:17 0
12 index[4] *272:5 0
13 *435:A4 *435:A2 3.09143e-06
14 *445:A3 *435:A2 7.19036e-06
15 *451:A1 *272:26 3.4037e-05
16 *16:37 *435:A2 1.66988e-05
17 *16:56 *435:A2 6.23524e-05
18 *18:12 *435:A2 5.10087e-06
19 *18:12 *272:26 5.56936e-06
20 *191:18 *444:A 1.60668e-05
21 *191:18 *272:9 6.0564e-05
22 *204:12 *435:A2 9.05228e-06
23 *204:12 *272:26 5.10087e-06
24 *216:11 *272:5 2.71381e-05
25 *219:11 *272:5 3.73676e-06
26 *223:5 *272:5 0.000321491
27 *258:17 *444:A 4.75762e-05
28 *259:9 *444:A 6.30564e-06
29 *259:9 *272:9 0.000173191
*RES
1 req[60] *272:5 156.536 
2 *272:5 *272:9 45.2857 
3 *272:9 *444:A 14.3214 
4 *272:9 *272:26 17.8571 
5 *272:26 *435:A2 16.4286 
6 *272:26 *298:A2 10 
*END

*D_NET *273 0.00641868
*CONN
*P req[61] I
*I *435:A1 I *D NOR4_X1
*I *298:A1 I *D OR4_X4
*I *450:A I *D INV_X1
*I *445:A1 I *D NOR4_X1
*CAP
1 req[61] 0.000218808
2 *435:A1 0
3 *298:A1 2.08283e-05
4 *450:A 1.50803e-05
5 *445:A1 0
6 *273:59 3.55567e-05
7 *273:55 8.32674e-05
8 *273:45 0.000290692
9 *273:37 0.000685599
10 *273:35 0.000768503
11 *273:23 0.00079769
12 *273:13 0.000684864
13 *273:13 *277:7 0.00039105
14 *298:A4 *273:45 7.29164e-07
15 *300:A3 *273:37 5.1189e-05
16 *302:A4 *273:37 4.24423e-05
17 *303:A1 *273:35 1.39839e-06
18 *311:A1 *273:35 1.30565e-05
19 *345:A4 *273:35 2.01398e-05
20 *421:A *273:37 0
21 *423:A2 *273:37 0
22 *435:A2 *298:A1 2.84765e-06
23 *435:A2 *273:55 2.34855e-05
24 *445:A2 *298:A1 7.40328e-06
25 *445:A2 *273:59 2.83289e-05
26 *445:A3 *273:45 0
27 *445:A3 *273:55 1.25189e-05
28 *451:A1 *298:A1 9.65418e-06
29 *451:A1 *450:A 0
30 *451:A1 *273:59 1.61446e-06
31 *451:A3 *273:45 3.85995e-05
32 *456:A1 *273:45 2.58568e-05
33 *458:A1 *273:35 1.28122e-06
34 *458:A3 *273:35 0
35 *459:B2 *273:37 8.14241e-05
36 *463:A2 *273:35 0.000122455
37 *463:A3 *273:23 6.10454e-06
38 *14:23 *273:35 0
39 *14:30 *273:35 0
40 *16:56 *298:A1 2.39679e-06
41 *16:67 *450:A 0
42 *16:74 *273:45 4.15825e-06
43 *17:58 *273:45 8.43215e-07
44 *17:58 *273:55 4.21607e-06
45 *20:10 *273:37 0.000232616
46 *22:14 *273:37 5.54348e-05
47 *23:8 *273:35 0
48 *30:14 *273:35 9.74616e-06
49 *85:10 *273:37 3.18642e-05
50 *101:8 *273:45 0.000123828
51 *118:8 *273:23 1.72405e-05
52 *147:22 *273:23 0.000278751
53 *180:20 *273:45 7.66428e-05
54 *203:16 *273:45 1.65449e-05
55 *204:12 *298:A1 1.27467e-05
56 *204:12 *273:55 4.38265e-05
57 *211:12 *273:13 0
58 *226:44 *273:23 6.05848e-05
59 *233:5 *273:13 0
60 *243:9 *273:23 0
61 *245:19 *273:35 0
62 *245:25 *273:35 0
63 *250:31 *273:45 3.026e-05
64 *253:19 *273:23 1.97654e-05
65 *256:9 *273:37 0
66 *261:23 *273:23 0.000181093
67 *264:9 *273:37 7.71867e-05
68 *264:11 *273:37 5.11191e-06
69 *265:17 *273:13 1.36051e-05
70 *265:19 *273:13 0.000421987
71 *265:43 *273:37 0.000152328
72 *269:13 *273:13 1.3917e-06
73 *269:23 *273:23 4.32036e-05
74 *269:43 *273:35 1.88398e-05
*RES
1 req[61] *273:13 48.8572 
2 *273:13 *273:23 41.7714 
3 *273:23 *273:35 46.6072 
4 *273:35 *273:37 62.6786 
5 *273:37 *273:45 40.9286 
6 *273:45 *273:55 10.7143 
7 *273:55 *273:59 7.75 
8 *273:59 *445:A1 5 
9 *273:59 *450:A 6.60714 
10 *273:55 *298:A1 13.1786 
11 *273:45 *435:A1 5 
*END

*D_NET *274 0.00583941
*CONN
*P req[62] I
*I *297:A I *D BUF_X4
*CAP
1 req[62] 4.49183e-05
2 *297:A 8.10563e-06
3 *274:17 0.000375893
4 *274:15 0.000367788
5 *274:13 0.000951456
6 *274:11 0.000996374
7 grant[0] *274:11 5.41015e-05
8 grant[62] *274:11 4.48581e-06
9 index[4] *274:13 0
10 *453:A1 *297:A 0
11 *453:A2 *274:17 5.51848e-05
12 *16:8 *274:17 0
13 *16:17 *274:17 0
14 *17:10 *274:17 2.57857e-05
15 *17:32 *274:17 4.56991e-05
16 *17:43 *274:17 1.97744e-05
17 *17:58 *274:17 8.93174e-06
18 *18:12 *274:17 0
19 *202:8 *274:17 6.63834e-05
20 *204:12 *274:17 0.000139949
21 *204:16 *274:13 0
22 *204:18 *274:13 0
23 *222:5 *274:13 0.00107896
24 *231:9 *274:11 0.000117243
25 *240:7 *274:11 5.04493e-06
26 *252:5 *274:13 0.00147333
*RES
1 req[62] *274:11 17.3929 
2 *274:11 *274:13 165.25 
3 *274:13 *274:15 5 
4 *274:15 *274:17 53.8572 
5 *274:17 *297:A 10.75 
*END

*D_NET *275 0.00619144
*CONN
*P req[63] I
*I *296:A I *D BUF_X2
*CAP
1 req[63] 7.3985e-05
2 *296:A 4.58851e-05
3 *275:17 0.000419041
4 *275:15 0.000373156
5 *275:13 0.00108699
6 *275:11 0.00116097
7 grant[0] *275:11 0.000193097
8 *418:A3 *296:A 9.62051e-07
9 *426:A1 *296:A 2.52965e-06
10 *448:A3 *275:17 0.000121198
11 *472:B *296:A 1.68643e-06
12 *18:12 *296:A 9.52105e-05
13 *18:12 *275:17 0.000336064
14 *18:14 *296:A 2.96955e-05
15 *188:10 *275:17 0.000515334
16 *191:10 *296:A 0.000119869
17 *191:10 *275:17 1.66988e-05
18 *191:18 *296:A 7.19036e-06
19 *191:18 *275:17 1.50871e-05
20 *204:12 *275:17 0
21 *223:5 *275:13 0.00072558
22 *226:5 *275:13 0.000528215
23 *231:9 *275:11 6.70982e-05
24 *239:5 *275:13 0
25 *243:5 *275:11 3.73676e-06
26 *244:5 *275:11 3.73676e-06
27 *259:9 *275:17 0
28 *272:5 *275:13 0.000248422
29 *272:9 *275:17 0
*RES
1 req[63] *275:11 21.4643 
2 *275:11 *275:13 159.25 
3 *275:13 *275:15 5 
4 *275:15 *275:17 58.6072 
5 *275:17 *296:A 28.8571 
*END

*D_NET *276 0.0045086
*CONN
*P req[6] I
*I *325:A2 I *D NOR2_X1
*I *329:A2 I *D AND3_X1
*I *282:A4 I *D NOR4_X1
*CAP
1 req[6] 1.46602e-05
2 *325:A2 0
3 *329:A2 6.73592e-05
4 *282:A4 3.18483e-05
5 *276:21 0.00012483
6 *276:17 0.000417204
7 *276:15 0.000391582
8 *276:13 0.000393795
9 *276:11 0.00040034
10 *276:9 0.000546646
11 *276:7 0.000554761
12 *282:A4 *282:A3 2.38892e-05
13 *276:17 *325:A1 8.43215e-07
14 *276:21 *325:A1 2.52965e-06
15 grant[15] *276:7 1.23514e-05
16 grant[22] *276:13 0.000154898
17 grant[23] *276:13 4.24402e-05
18 grant[33] *276:9 1.36901e-05
19 grant[36] *276:13 1.50348e-05
20 grant[39] *276:13 6.72155e-05
21 grant[40] *276:13 2.60624e-05
22 grant[40] *276:17 1.26998e-05
23 grant[47] *276:9 1.11357e-05
24 grant[56] *276:9 9.20479e-05
25 grant[63] *276:9 9.83475e-07
26 grant[9] *276:9 7.93012e-05
27 *326:A2 *282:A4 1.38207e-05
28 *326:A2 *329:A2 1.61002e-06
29 *326:A3 *329:A2 1.48912e-05
30 *326:A4 *329:A2 0
31 *327:A3 *329:A2 5.27534e-05
32 *484:A1 *329:A2 3.09411e-06
33 *36:21 *329:A2 1.72426e-05
34 *40:6 *329:A2 1.86809e-06
35 *40:6 *276:21 4.00586e-05
36 *147:22 *276:9 4.24465e-06
37 *201:10 *282:A4 2.41311e-05
38 *201:10 *329:A2 2.00032e-05
39 *206:6 *329:A2 4.48497e-05
40 *206:6 *276:17 0
41 *206:6 *276:21 0
42 *207:20 *282:A4 4.32144e-07
43 *207:20 *276:17 0.000208724
44 *220:7 *276:17 4.57108e-05
45 *223:9 *329:A2 5.11191e-06
46 *240:9 *276:13 0.000228461
47 *249:11 *276:9 0.000105295
48 *250:7 *276:17 1.80284e-05
49 *250:11 *276:17 1.97728e-05
50 *250:19 *282:A4 1.25215e-05
51 *251:11 *276:13 2.89018e-05
52 *258:11 *276:13 9.57798e-06
53 *260:13 *282:A4 4.80378e-06
54 *265:17 *276:9 5.86754e-06
55 *266:5 *276:7 1.17923e-05
56 *271:17 *276:17 1.70597e-05
57 *271:25 *276:21 4.98241e-05
*RES
1 req[6] *276:7 7.53572 
2 *276:7 *276:9 54.875 
3 *276:9 *276:11 0.75 
4 *276:11 *276:13 49.4464 
5 *276:13 *276:15 5 
6 *276:15 *276:17 53.75 
7 *276:17 *276:21 9.75 
8 *276:21 *282:A4 14.8929 
9 *276:21 *329:A2 30.5714 
10 *276:17 *325:A2 5 
*END

*D_NET *277 0.00422417
*CONN
*P req[7] I
*I *325:A1 I *D NOR2_X1
*I *282:A3 I *D NOR4_X1
*I *328:A I *D INV_X1
*CAP
1 req[7] 0.000206413
2 *325:A1 6.20371e-05
3 *282:A3 2.40661e-05
4 *328:A 4.62305e-06
5 *277:15 4.9674e-05
6 *277:13 0.000200992
7 *277:9 0.000753188
8 *277:7 0.000841632
9 grant[10] *277:7 2.05033e-06
10 *282:A4 *282:A3 2.38892e-05
11 *157:10 *325:A1 2.57809e-05
12 *159:23 *277:9 0
13 *178:33 *328:A 7.72792e-06
14 *178:33 *277:13 0.000227199
15 *178:33 *277:15 4.88515e-05
16 *201:10 *282:A3 1.10565e-06
17 *201:10 *325:A1 4.97348e-06
18 *206:6 *325:A1 4.32144e-07
19 *207:20 *282:A3 2.52965e-06
20 *211:12 *277:9 0.00102012
21 *228:9 *277:9 0
22 *233:5 *277:7 8.42821e-05
23 *250:11 *277:13 3.32523e-05
24 *250:19 *328:A 7.19036e-06
25 *250:19 *277:13 6.32664e-05
26 *250:19 *277:15 5.05375e-05
27 *254:9 *277:9 0
28 *260:13 *282:A3 3.96416e-05
29 *271:17 *325:A1 2.39679e-06
30 *271:25 *325:A1 4.18985e-05
31 *273:13 *277:7 0.00039105
32 *276:17 *325:A1 8.43215e-07
33 *276:21 *325:A1 2.52965e-06
*RES
1 req[7] *277:7 41.0357 
2 *277:7 *277:9 73.5357 
3 *277:9 *277:13 26.25 
4 *277:13 *277:15 4.75 
5 *277:15 *328:A 5.75 
6 *277:15 *282:A3 18.0357 
7 *277:13 *325:A1 22.1071 
*END

*D_NET *278 0.00589034
*CONN
*P req[8] I
*I *496:A2 I *D AND4_X1
*I *283:A2 I *D NOR4_X1
*CAP
1 req[8] 0.000326942
2 *496:A2 0
3 *283:A2 3.27011e-05
4 *278:33 0.000187838
5 *278:17 0.000512464
6 *278:15 0.000656179
7 *278:5 0.000625793
8 grant[1] *278:5 2.60945e-06
9 grant[29] *278:5 0.000245282
10 grant[29] *278:15 6.98513e-06
11 *283:A3 *283:A2 4.75556e-05
12 *283:A3 *278:33 3.28137e-06
13 *283:A4 *283:A2 3.65322e-06
14 *305:A2 *278:15 3.46864e-06
15 *305:A3 *278:15 7.19036e-06
16 *312:A3 *278:33 7.19036e-06
17 *320:A2 *278:33 1.66988e-05
18 *357:A2 *278:15 1.60816e-05
19 *358:A4 *278:15 3.54199e-05
20 *359:A1 *278:15 0
21 *462:A1 *278:17 8.12811e-06
22 *463:A1 *278:17 3.81774e-05
23 *496:A1 *283:A2 1.76665e-06
24 *496:A1 *278:33 2.7335e-05
25 *496:A3 *283:A2 2.39679e-06
26 *496:A3 *278:33 2.79732e-05
27 *2:14 *278:33 2.70806e-05
28 *3:12 *283:A2 3.5053e-05
29 *3:12 *278:33 8.02727e-05
30 *11:14 *278:15 0
31 *25:12 *278:15 1.03991e-06
32 *31:76 *278:33 3.33034e-05
33 *32:6 *278:33 6.46429e-06
34 *45:10 *278:33 7.19036e-06
35 *47:8 *278:33 2.75346e-06
36 *48:12 *278:15 0
37 *74:8 *278:17 8.34049e-06
38 *157:18 *278:5 0.000138103
39 *157:18 *278:15 4.65673e-05
40 *208:8 *278:33 0
41 *218:28 *278:33 3.11167e-05
42 *242:17 *278:17 0.00148448
43 *243:9 *278:33 8.92915e-06
44 *247:13 *278:15 0
45 *247:23 *278:15 1.58306e-05
46 *249:17 *278:17 0.0011207
47 *250:23 *278:33 0
*RES
1 req[8] *278:5 51.4286 
2 *278:5 *278:15 40.6429 
3 *278:15 *278:17 80.3215 
4 *278:17 *278:33 36.9643 
5 *278:33 *283:A2 10.9286 
6 *278:33 *496:A2 5 
*END

*D_NET *279 0.00372138
*CONN
*P req[9] I
*I *283:A1 I *D NOR4_X1
*I *336:A1 I *D AND3_X1
*I *495:A I *D INV_X1
*CAP
1 req[9] 0.000660764
2 *283:A1 2.09043e-05
3 *336:A1 1.3287e-05
4 *495:A 2.89788e-05
5 *279:19 8.76804e-05
6 *279:17 0.000203532
7 *279:9 0.000629273
8 *279:7 0.00049206
9 *279:5 0.000660764
10 grant[0] *279:5 2.05033e-06
11 *283:A3 *283:A1 2.90397e-05
12 *283:A4 *279:17 7.40224e-05
13 *283:A4 *279:19 5.33077e-05
14 *313:A3 *279:9 3.2433e-05
15 *313:A4 *279:9 1.11357e-05
16 *320:A2 *279:17 2.01425e-05
17 *336:A2 *336:A1 3.22834e-06
18 *338:A3 *279:17 1.41532e-05
19 *3:12 *336:A1 0
20 *31:44 *279:17 3.49085e-06
21 *31:44 *279:19 1.57662e-05
22 *32:37 *279:9 4.63348e-05
23 *147:12 *279:17 4.381e-07
24 *176:23 *495:A 2.54935e-05
25 *196:18 *495:A 3.28759e-06
26 *196:18 *279:17 1.45394e-06
27 *196:18 *279:19 2.26153e-06
28 *199:20 *283:A1 0
29 *199:20 *279:17 7.03695e-05
30 *208:8 *279:17 7.66449e-06
31 *209:16 *336:A1 4.29713e-06
32 *217:34 *279:17 2.3899e-05
33 *243:9 *279:9 0
34 *250:31 *336:A1 2.4961e-05
35 *250:31 *495:A 2.4961e-05
36 *264:5 *279:5 0.000429949
*RES
1 req[9] *279:5 88.5358 
2 *279:5 *279:7 5 
3 *279:7 *279:9 51.1429 
4 *279:9 *279:17 30.75 
5 *279:17 *279:19 5.67857 
6 *279:19 *495:A 13.8571 
7 *279:19 *336:A1 12.25 
8 *279:17 *283:A1 12.75 
*END

*D_NET *280 0.00244216
*CONN
*P valid O
*I *314:ZN O *D NAND2_X2
*CAP
1 valid 0.00023785
2 *314:ZN 7.7764e-05
3 *280:16 0.000445162
4 *280:12 0.000426344
5 *280:8 0.000296796
6 grant[59] valid 5.21493e-05
7 grant[59] *280:16 0
8 grant[62] valid 4.95575e-05
9 grant[62] *280:16 1.04874e-05
10 index[4] valid 1.02995e-05
11 *313:A2 *280:8 1.87418e-05
12 *313:A2 *280:12 9.18014e-06
13 *314:A2 *280:8 0.000107643
14 *318:A *280:12 4.9678e-06
15 *168:6 *280:12 8.5442e-05
16 *168:6 *280:16 4.72955e-05
17 *200:31 *280:8 0
18 *204:18 valid 0
19 *204:18 *280:8 7.16188e-07
20 *204:18 *280:12 0.000162206
21 *204:18 *280:16 0.000329145
22 *222:5 valid 1.02995e-05
23 *231:9 valid 6.01144e-05
*RES
1 *314:ZN *280:8 16.1786 
2 *280:8 *280:12 34.7857 
3 *280:12 *280:16 33.1072 
4 *280:16 valid 40.8572 
*END
