*SPEF "ieee 1481-1999"
*DESIGN "design"
*DATE "01:08:44 Wednesday September 16, 2026"
*VENDOR "The OpenROAD Project"
*PROGRAM "OpenROAD"
*VERSION "26Q2-1164-g08f67ee5ec"
*DESIGN_FLOW "NAME_SCOPE LOCAL" "PIN_CAP NONE"
*DIVIDER /
*DELIMITER :
*BUS_DELIMITER []
*T_UNIT 1 NS
*C_UNIT 1 PF
*R_UNIT 1 OHM
*L_UNIT 1 HENRY

*NAME_MAP
*1 _000_
*2 _001_
*3 _002_
*4 _003_
*5 _004_
*6 _005_
*7 _006_
*8 _007_
*9 _008_
*10 _009_
*11 _010_
*12 _011_
*13 _012_
*14 _013_
*15 _014_
*16 _015_
*17 _016_
*18 _017_
*19 _018_
*20 _019_
*21 _020_
*22 _021_
*23 _022_
*24 _023_
*25 _024_
*26 _025_
*27 _026_
*28 _027_
*29 _028_
*30 _029_
*31 _030_
*32 _031_
*33 _032_
*34 _033_
*35 _034_
*36 _035_
*37 _036_
*38 _037_
*39 _038_
*40 _039_
*41 _040_
*42 _041_
*43 _042_
*44 _043_
*45 _044_
*46 _045_
*47 _046_
*48 _047_
*49 _048_
*50 _049_
*51 _050_
*52 _051_
*53 _052_
*54 _053_
*55 _054_
*56 _055_
*57 _056_
*58 _057_
*59 _058_
*60 _059_
*61 _060_
*62 _061_
*63 _062_
*64 _063_
*65 _064_
*66 _065_
*67 _066_
*68 _067_
*69 _068_
*70 _069_
*71 _070_
*72 _071_
*73 _072_
*74 _073_
*75 _074_
*76 _075_
*77 _076_
*78 _077_
*79 _078_
*80 _079_
*81 _080_
*82 _081_
*83 _082_
*84 _083_
*85 _084_
*86 _085_
*87 _086_
*88 _087_
*89 _088_
*90 _089_
*91 _090_
*92 _091_
*93 _092_
*94 _093_
*95 _094_
*96 _095_
*97 _096_
*98 _097_
*99 _098_
*100 _099_
*101 _100_
*102 _101_
*103 _102_
*104 _103_
*105 _104_
*106 _105_
*107 _106_
*108 _107_
*109 _108_
*110 _109_
*111 _110_
*112 _111_
*113 _112_
*114 _113_
*115 _114_
*116 _115_
*117 _116_
*118 _117_
*119 _118_
*120 _119_
*121 _120_
*122 _121_
*123 _122_
*124 _123_
*125 _124_
*126 _125_
*127 _126_
*128 _127_
*129 _128_
*130 _129_
*131 _130_
*132 _131_
*133 _132_
*134 _133_
*135 _134_
*136 _135_
*137 _136_
*138 _137_
*139 _138_
*140 _139_
*141 _140_
*142 _141_
*143 _142_
*144 _143_
*145 _144_
*146 _145_
*147 _146_
*148 _147_
*149 _148_
*150 _149_
*151 grant[0]
*152 grant[10]
*153 grant[11]
*154 grant[12]
*155 grant[13]
*156 grant[14]
*157 grant[15]
*158 grant[16]
*159 grant[17]
*160 grant[18]
*161 grant[19]
*162 grant[1]
*163 grant[20]
*164 grant[21]
*165 grant[22]
*166 grant[23]
*167 grant[24]
*168 grant[25]
*169 grant[26]
*170 grant[27]
*171 grant[28]
*172 grant[29]
*173 grant[2]
*174 grant[30]
*175 grant[31]
*176 grant[32]
*177 grant[33]
*178 grant[34]
*179 grant[35]
*180 grant[36]
*181 grant[37]
*182 grant[38]
*183 grant[39]
*184 grant[3]
*185 grant[40]
*186 grant[41]
*187 grant[42]
*188 grant[43]
*189 grant[44]
*190 grant[45]
*191 grant[46]
*192 grant[47]
*193 grant[48]
*194 grant[49]
*195 grant[4]
*196 grant[50]
*197 grant[51]
*198 grant[52]
*199 grant[53]
*200 grant[54]
*201 grant[55]
*202 grant[56]
*203 grant[57]
*204 grant[58]
*205 grant[59]
*206 grant[5]
*207 grant[60]
*208 grant[61]
*209 grant[62]
*210 grant[63]
*211 grant[6]
*212 grant[7]
*213 grant[8]
*214 grant[9]
*215 index[0]
*216 index[1]
*217 index[2]
*218 index[3]
*219 index[4]
*220 index[5]
*221 req[0]
*222 req[10]
*223 req[11]
*224 req[12]
*225 req[13]
*226 req[14]
*227 req[15]
*228 req[16]
*229 req[17]
*230 req[18]
*231 req[19]
*232 req[1]
*233 req[20]
*234 req[21]
*235 req[22]
*236 req[23]
*237 req[24]
*238 req[25]
*239 req[26]
*240 req[27]
*241 req[28]
*242 req[29]
*243 req[2]
*244 req[30]
*245 req[31]
*246 req[32]
*247 req[33]
*248 req[34]
*249 req[35]
*250 req[36]
*251 req[37]
*252 req[38]
*253 req[39]
*254 req[3]
*255 req[40]
*256 req[41]
*257 req[42]
*258 req[43]
*259 req[44]
*260 req[45]
*261 req[46]
*262 req[47]
*263 req[48]
*264 req[49]
*265 req[4]
*266 req[50]
*267 req[51]
*268 req[52]
*269 req[53]
*270 req[54]
*271 req[55]
*272 req[56]
*273 req[57]
*274 req[58]
*275 req[59]
*276 req[5]
*277 req[60]
*278 req[61]
*279 req[62]
*280 req[63]
*281 req[6]
*282 req[7]
*283 req[8]
*284 req[9]
*285 valid
*286 _150_
*287 _151_
*288 _152_
*289 _153_
*290 _154_
*291 _155_
*292 _156_
*293 _157_
*294 _158_
*295 _159_
*296 _160_
*297 _161_
*298 _162_
*299 _163_
*300 _164_
*301 _165_
*302 _166_
*303 _167_
*304 _168_
*305 _169_
*306 _170_
*307 _171_
*308 _172_
*309 _173_
*310 _174_
*311 _175_
*312 _176_
*313 _177_
*314 _178_
*315 _179_
*316 _180_
*317 _181_
*318 _182_
*319 _183_
*320 _184_
*321 _185_
*322 _186_
*323 _187_
*324 _188_
*325 _189_
*326 _190_
*327 _191_
*328 _192_
*329 _193_
*330 _194_
*331 _195_
*332 _196_
*333 _197_
*334 _198_
*335 _199_
*336 _200_
*337 _201_
*338 _202_
*339 _203_
*340 _204_
*341 _205_
*342 _206_
*343 _207_
*344 _208_
*345 _209_
*346 _210_
*347 _211_
*348 _212_
*349 _213_
*350 _214_
*351 _215_
*352 _216_
*353 _217_
*354 _218_
*355 _219_
*356 _220_
*357 _221_
*358 _222_
*359 _223_
*360 _224_
*361 _225_
*362 _226_
*363 _227_
*364 _228_
*365 _229_
*366 _230_
*367 _231_
*368 _232_
*369 _233_
*370 _234_
*371 _235_
*372 _236_
*373 _237_
*374 _238_
*375 _239_
*376 _240_
*377 _241_
*378 _242_
*379 _243_
*380 _244_
*381 _245_
*382 _246_
*383 _247_
*384 _248_
*385 _249_
*386 _250_
*387 _251_
*388 _252_
*389 _253_
*390 _254_
*391 _255_
*392 _256_
*393 _257_
*394 _258_
*395 _259_
*396 _260_
*397 _261_
*398 _262_
*399 _263_
*400 _264_
*401 _265_
*402 _266_
*403 _267_
*404 _268_
*405 _269_
*406 _270_
*407 _271_
*408 _272_
*409 _273_
*410 _274_
*411 _275_
*412 _276_
*413 _277_
*414 _278_
*415 _279_
*416 _280_
*417 _281_
*418 _282_
*419 _283_
*420 _284_
*421 _285_
*422 _286_
*423 _287_
*424 _288_
*425 _289_
*426 _290_
*427 _291_
*428 _292_
*429 _293_
*430 _294_
*431 _295_
*432 _296_
*433 _297_
*434 _298_
*435 _299_
*436 _300_
*437 _301_
*438 _302_
*439 _303_
*440 _304_
*441 _305_
*442 _306_
*443 _307_
*444 _308_
*445 _309_
*446 _310_
*447 _311_
*448 _312_
*449 _313_
*450 _314_
*451 _315_
*452 _316_
*453 _317_
*454 _318_
*455 _319_
*456 _320_
*457 _321_
*458 _322_
*459 _323_
*460 _324_
*461 _325_
*462 _326_
*463 _327_
*464 _328_
*465 _329_
*466 _330_
*467 _331_
*468 _332_
*469 _333_
*470 _334_
*471 _335_
*472 _336_
*473 _337_
*474 _338_
*475 _339_
*476 _340_
*477 _341_
*478 _342_
*479 _343_
*480 _344_
*481 _345_
*482 _346_
*483 _347_
*484 _348_
*485 _349_
*486 _350_
*487 _351_
*488 _352_
*489 _353_
*490 _354_
*491 _355_
*492 _356_
*493 _357_
*494 _358_
*495 _359_
*496 _360_
*497 _361_
*498 _362_
*499 _363_
*500 _364_
*501 _365_
*502 _366_
*503 _367_
*504 _368_
*505 _369_
*506 _370_

*PORTS
grant[0] O
grant[10] O
grant[11] O
grant[12] O
grant[13] O
grant[14] O
grant[15] O
grant[16] O
grant[17] O
grant[18] O
grant[19] O
grant[1] O
grant[20] O
grant[21] O
grant[22] O
grant[23] O
grant[24] O
grant[25] O
grant[26] O
grant[27] O
grant[28] O
grant[29] O
grant[2] O
grant[30] O
grant[31] O
grant[32] O
grant[33] O
grant[34] O
grant[35] O
grant[36] O
grant[37] O
grant[38] O
grant[39] O
grant[3] O
grant[40] O
grant[41] O
grant[42] O
grant[43] O
grant[44] O
grant[45] O
grant[46] O
grant[47] O
grant[48] O
grant[49] O
grant[4] O
grant[50] O
grant[51] O
grant[52] O
grant[53] O
grant[54] O
grant[55] O
grant[56] O
grant[57] O
grant[58] O
grant[59] O
grant[5] O
grant[60] O
grant[61] O
grant[62] O
grant[63] O
grant[6] O
grant[7] O
grant[8] O
grant[9] O
index[0] O
index[1] O
index[2] O
index[3] O
index[4] O
index[5] O
req[0] I
req[10] I
req[11] I
req[12] I
req[13] I
req[14] I
req[15] I
req[16] I
req[17] I
req[18] I
req[19] I
req[1] I
req[20] I
req[21] I
req[22] I
req[23] I
req[24] I
req[25] I
req[26] I
req[27] I
req[28] I
req[29] I
req[2] I
req[30] I
req[31] I
req[32] I
req[33] I
req[34] I
req[35] I
req[36] I
req[37] I
req[38] I
req[39] I
req[3] I
req[40] I
req[41] I
req[42] I
req[43] I
req[44] I
req[45] I
req[46] I
req[47] I
req[48] I
req[49] I
req[4] I
req[50] I
req[51] I
req[52] I
req[53] I
req[54] I
req[55] I
req[56] I
req[57] I
req[58] I
req[59] I
req[5] I
req[60] I
req[61] I
req[62] I
req[63] I
req[6] I
req[7] I
req[8] I
req[9] I
valid O

*D_NET *1 0.000473875
*CONN
*I *317:A1 I *D AND4_X1
*I *308:A1 I *D NAND2_X1
*I *286:ZN O *D NOR4_X1
*CAP
1 *317:A1 0.000116827
2 *308:A1 0
3 *286:ZN 8.14167e-05
4 *1:6 0.000198244
5 *317:A1 *306:A1 8.95864e-06
6 *317:A1 *307:A4 2.55331e-06
7 *317:A1 *317:A2 8.43215e-07
8 *317:A1 *19:14 1.6238e-05
9 *317:A1 *22:16 0
10 *317:A1 *232:25 0
11 *1:6 *286:A2 1.73125e-05
12 *1:6 *22:20 3.10155e-05
13 *1:6 *232:25 0
14 *1:6 *254:45 4.6613e-07
*RES
1 *286:ZN *1:6 14.25 
2 *1:6 *308:A1 5 
3 *1:6 *317:A1 17.7857 
*END

*D_NET *2 0.000925346
*CONN
*I *377:A1 I *D AND4_X1
*I *291:A1 I *D NAND4_X2
*I *287:ZN O *D NOR4_X1
*CAP
1 *377:A1 5.79959e-05
2 *291:A1 0
3 *287:ZN 0.000185444
4 *2:10 0.00024344
5 *377:A1 *377:A3 4.9678e-06
6 *377:A1 *490:B1 2.52965e-06
7 *377:A1 *3:82 2.08098e-06
8 *377:A1 *4:30 2.96955e-05
9 *377:A1 *4:43 7.85969e-05
10 *377:A1 *5:16 4.32144e-07
11 *377:A1 *135:14 1.61803e-06
12 *377:A1 *159:23 0.000129538
13 *377:A1 *230:21 4.76429e-07
14 *2:10 grant[25] 0
15 *2:10 *158:10 8.83266e-06
16 *2:10 *159:23 4.23347e-05
17 *2:10 *165:32 8.34007e-05
18 *2:10 *230:21 7.59477e-06
19 *2:10 *238:17 4.6368e-05
*RES
1 *287:ZN *2:10 33.6072 
2 *2:10 *291:A1 10 
3 *2:10 *377:A1 20.0357 
*END

*D_NET *3 0.00319351
*CONN
*I *419:A3 I *D AND4_X1
*I *398:A1 I *D NAND3_X1
*I *291:A2 I *D NAND4_X2
*I *377:A2 I *D AND4_X1
*I *490:A I *D OAI21_X1
*I *423:A1 I *D NAND2_X1
*I *429:A2 I *D NAND3_X1
*I *433:A2 I *D NAND2_X1
*I *420:A2 I *D NAND4_X1
*I *288:ZN O *D NOR4_X4
*CAP
1 *419:A3 0
2 *398:A1 0.000139329
3 *291:A2 0
4 *377:A2 0
5 *490:A 0
6 *423:A1 0
7 *429:A2 0
8 *433:A2 0
9 *420:A2 0.000133837
10 *288:ZN 9.16154e-05
11 *3:82 0.000181101
12 *3:69 4.81404e-05
13 *3:60 2.22395e-05
14 *3:51 0.000109894
15 *3:47 0.000217073
16 *3:34 0.000142343
17 *3:14 0.000159852
18 *3:10 0.000136923
19 *398:A1 *398:A2 0.0002014
20 *398:A1 *238:13 3.31362e-05
21 *420:A2 *420:A3 4.50306e-05
22 *420:A2 *176:10 6.12838e-05
23 *420:A2 *206:35 4.50306e-05
24 *420:A2 *266:9 0
25 *420:A2 *275:21 4.32319e-05
26 *3:10 *406:A3 8.98164e-05
27 *3:10 *428:A1 1.25215e-05
28 *3:10 *83:8 4.16464e-05
29 *3:10 *83:29 0.000105043
30 *3:10 *96:12 1.19839e-05
31 *3:10 *207:12 4.10045e-05
32 *3:10 *250:15 6.65388e-05
33 *3:10 *266:9 6.53865e-06
34 *3:10 *277:13 4.16195e-06
35 *3:10 *277:15 2.3767e-06
36 *3:14 *223:17 6.20863e-05
37 *3:14 *275:25 6.15513e-05
38 *3:34 *83:29 6.33941e-05
39 *3:34 *266:9 1.36901e-05
40 *3:47 *419:A1 1.28398e-05
41 *3:47 *419:A2 2.75346e-06
42 *3:47 *83:29 9.90959e-05
43 *3:47 *91:12 2.39679e-06
44 *3:47 *91:21 0.000138005
45 *3:47 *164:22 0.000115002
46 *3:47 *235:17 3.37286e-06
47 *3:47 *266:9 1.91688e-05
48 *3:51 *490:B1 6.48715e-05
49 *3:51 *4:8 1.3219e-05
50 *3:51 *4:19 3.53803e-05
51 *3:51 *230:21 3.41845e-05
52 *3:60 *490:B1 3.75418e-05
53 *3:60 *490:B2 4.12899e-05
54 *3:60 *4:30 5.45556e-06
55 *3:60 *230:21 1.07288e-06
56 *3:69 *490:B2 2.59893e-05
57 *3:69 *4:30 1.11258e-05
58 *3:82 *291:A3 1.26998e-05
59 *3:82 *291:A4 5.3941e-05
60 *3:82 *398:A2 2.39679e-06
61 *3:82 *490:B2 2.54476e-05
62 *3:82 *4:30 6.32202e-06
63 *3:82 *4:43 2.57683e-05
64 *3:82 *230:21 6.03486e-06
65 *3:82 *238:13 2.23871e-06
66 *377:A1 *3:82 2.08098e-06
*RES
1 *288:ZN *3:10 25.75 
2 *3:10 *3:14 10.75 
3 *3:14 *420:A2 31.7143 
4 *3:14 *433:A2 5 
5 *3:10 *3:34 3.64286 
6 *3:34 *429:A2 10 
7 *3:34 *3:47 25.4286 
8 *3:47 *3:51 16.7857 
9 *3:51 *423:A1 10 
10 *3:51 *3:60 2.96429 
11 *3:60 *490:A 10 
12 *3:60 *3:69 1.60714 
13 *3:69 *377:A2 10 
14 *3:69 *3:82 11.9286 
15 *3:82 *291:A2 5 
16 *3:82 *398:A1 25.4286 
17 *3:47 *419:A3 5 
*END

*D_NET *4 0.00197233
*CONN
*I *398:A2 I *D NAND3_X1
*I *291:A3 I *D NAND4_X2
*I *377:A3 I *D AND4_X1
*I *423:A2 I *D NAND2_X1
*I *420:A3 I *D NAND4_X1
*I *289:ZN O *D NOR4_X2
*CAP
1 *398:A2 0.000139028
2 *291:A3 9.86944e-06
3 *377:A3 8.46531e-06
4 *423:A2 8.61691e-06
5 *420:A3 0.000145249
6 *289:ZN 4.96132e-05
7 *4:43 0.000172053
8 *4:30 7.0154e-05
9 *4:19 9.24677e-05
10 *4:8 0.00024018
11 *291:A3 *152:39 1.28122e-06
12 *377:A3 *5:16 1.0303e-05
13 *377:A3 *5:20 2.39679e-06
14 *398:A2 *152:39 1.43806e-05
15 *398:A2 *170:25 2.04932e-05
16 *420:A3 *202:8 2.68997e-05
17 *420:A3 *206:35 3.02627e-05
18 *420:A3 *226:15 0.000126018
19 *420:A3 *235:17 8.8833e-05
20 *423:A2 *94:23 1.19839e-05
21 *423:A2 *163:18 1.19839e-05
22 *4:8 *159:23 3.13932e-05
23 *4:8 *230:21 1.4293e-06
24 *4:8 *272:13 8.88497e-06
25 *4:19 *490:B1 4.11048e-05
26 *4:19 *159:23 5.03183e-05
27 *4:30 *490:B1 5.76817e-05
28 *4:30 *159:23 2.89254e-05
29 *377:A1 *377:A3 4.9678e-06
30 *377:A1 *4:30 2.96955e-05
31 *377:A1 *4:43 7.85969e-05
32 *398:A1 *398:A2 0.0002014
33 *420:A2 *420:A3 4.50306e-05
34 *3:51 *4:8 1.3219e-05
35 *3:51 *4:19 3.53803e-05
36 *3:60 *4:30 5.45556e-06
37 *3:69 *4:30 1.11258e-05
38 *3:82 *291:A3 1.26998e-05
39 *3:82 *398:A2 2.39679e-06
40 *3:82 *4:30 6.32202e-06
41 *3:82 *4:43 2.57683e-05
*RES
1 *289:ZN *4:8 15.6786 
2 *4:8 *420:A3 33.25 
3 *4:8 *4:19 7.71429 
4 *4:19 *423:A2 11.25 
5 *4:19 *4:30 6.35715 
6 *4:30 *377:A3 11.25 
7 *4:30 *4:43 9.32143 
8 *4:43 *291:A3 6.25 
9 *4:43 *398:A2 25.4286 
*END

*D_NET *5 0.00143049
*CONN
*I *398:A3 I *D NAND3_X1
*I *414:A2 I *D AND2_X1
*I *377:A4 I *D AND4_X1
*I *291:A4 I *D NAND4_X2
*I *490:B2 I *D OAI21_X1
*I *290:ZN O *D NOR4_X2
*CAP
1 *398:A3 3.36657e-05
2 *414:A2 0
3 *377:A4 0
4 *291:A4 1.51613e-05
5 *490:B2 2.80426e-05
6 *290:ZN 0.000116254
7 *5:20 4.97086e-05
8 *5:16 7.29179e-05
9 *5:14 0.000114409
10 *5:10 0.000197916
11 *291:A4 *230:21 1.75123e-05
12 *398:A3 *176:10 2.28505e-05
13 *398:A3 *266:9 0
14 *490:B2 *94:23 3.09143e-06
15 *490:B2 *135:14 7.19036e-06
16 *490:B2 *230:21 3.51493e-05
17 *5:10 *163:20 9.29929e-05
18 *5:10 *176:10 4.38166e-05
19 *5:10 *233:31 3.96328e-05
20 *5:10 *266:9 0
21 *5:14 *85:27 0.000106582
22 *5:14 *152:39 0.000108979
23 *5:16 *85:12 4.91108e-05
24 *5:16 *85:27 2.39679e-06
25 *5:16 *135:14 0
26 *5:16 *152:39 0.000106125
27 *5:20 *152:39 7.19036e-06
28 *377:A1 *5:16 4.32144e-07
29 *377:A3 *5:16 1.0303e-05
30 *377:A3 *5:20 2.39679e-06
31 *3:60 *490:B2 4.12899e-05
32 *3:69 *490:B2 2.59893e-05
33 *3:82 *291:A4 5.3941e-05
34 *3:82 *490:B2 2.54476e-05
*RES
1 *290:ZN *5:10 25.7857 
2 *5:10 *5:14 15.25 
3 *5:14 *5:16 10.25 
4 *5:16 *5:20 5.75 
5 *5:20 *490:B2 15.75 
6 *5:20 *291:A4 12.9643 
7 *5:16 *377:A4 5 
8 *5:14 *414:A2 5 
9 *5:10 *398:A3 13.6429 
*END

*D_NET *6 0.00247842
*CONN
*I *335:A1 I *D NOR3_X2
*I *318:A1 I *D NOR4_X4
*I *292:A I *D BUF_X4
*I *327:A1 I *D NOR4_X2
*I *291:ZN O *D NAND4_X2
*CAP
1 *335:A1 0
2 *318:A1 0.000152597
3 *292:A 7.24803e-05
4 *327:A1 8.71307e-06
5 *291:ZN 0.000131989
6 *6:34 0.000257408
7 *6:19 0.000263378
8 *6:6 0.00022679
9 *292:A *7:12 0
10 *292:A *121:10 0
11 *292:A *220:8 0.000110935
12 *318:A1 *307:A1 8.39366e-06
13 *318:A1 *307:A2 2.75346e-06
14 *318:A1 *499:A 2.52965e-06
15 *318:A1 *12:66 0.000117147
16 *318:A1 *12:86 9.64572e-05
17 *318:A1 *17:8 4.91133e-05
18 *318:A1 *254:33 1.02315e-05
19 *6:6 *491:A3 0
20 *6:6 *156:22 0.000195479
21 *6:19 *327:A2 4.30918e-06
22 *6:19 *489:A1 5.05947e-05
23 *6:19 *155:27 9.77674e-06
24 *6:19 *156:22 6.03627e-05
25 *6:19 *247:13 0.000141654
26 *6:34 *314:A1 9.38795e-05
27 *6:34 *314:A2 4.21607e-06
28 *6:34 *17:8 0.000108976
29 *6:34 *155:27 7.906e-05
30 *6:34 *247:13 0.000219197
*RES
1 *291:ZN *6:6 23.25 
2 *6:6 *327:A1 5.92857 
3 *6:6 *6:19 18.4643 
4 *6:19 *292:A 20.25 
5 *6:19 *6:34 27.0357 
6 *6:34 *318:A1 27.5357 
7 *6:34 *335:A1 5 
*END

*D_NET *7 0.00495035
*CONN
*I *314:A1 I *D NOR4_X2
*I *359:A1 I *D NOR2_X1
*I *384:A2 I *D NOR3_X1
*I *375:A2 I *D NOR3_X1
*I *374:A3 I *D NOR4_X2
*I *352:A1 I *D OR3_X1
*I *383:A3 I *D NOR4_X2
*I *381:A2 I *D OR4_X2
*I *368:A1 I *D NOR3_X1
*I *307:A1 I *D NOR4_X2
*I *292:Z O *D BUF_X4
*CAP
1 *314:A1 0.000139158
2 *359:A1 0
3 *384:A2 1.25525e-05
4 *375:A2 9.05569e-05
5 *374:A3 7.31838e-05
6 *352:A1 0
7 *383:A3 3.61434e-05
8 *381:A2 0
9 *368:A1 0.000121447
10 *307:A1 0.000241777
11 *292:Z 9.82573e-06
12 *7:84 8.16491e-05
13 *7:64 6.65113e-05
14 *7:51 0.000219617
15 *7:45 0.0001075
16 *7:43 0.000185696
17 *7:41 0.000308726
18 *7:14 0.000481337
19 *7:12 5.34768e-05
20 *7:8 0.000195167
21 *307:A1 *307:A2 3.30252e-05
22 *307:A1 *359:A2 2.03335e-05
23 *307:A1 *466:A4 4.91133e-05
24 *307:A1 *493:A1 3.71326e-05
25 *307:A1 *499:A 3.09143e-06
26 *307:A1 *499:B2 1.76665e-06
27 *307:A1 *12:66 1.08036e-06
28 *307:A1 *115:10 8.00929e-05
29 *307:A1 *143:6 8.86004e-06
30 *307:A1 *181:14 2.92456e-05
31 *307:A1 *226:35 6.65423e-06
32 *314:A1 grant[25] 2.43548e-06
33 *314:A1 *302:A2 4.32144e-07
34 *314:A1 *302:A3 2.52965e-06
35 *314:A1 *302:A4 7.19036e-06
36 *314:A1 *314:A2 0.000192158
37 *314:A1 *335:A3 4.44127e-06
38 *314:A1 *492:A2 2.09871e-05
39 *314:A1 *17:8 1.70575e-05
40 *314:A1 *27:8 6.0887e-06
41 *314:A1 *55:12 2.54645e-06
42 *314:A1 *168:12 2.94455e-05
43 *314:A1 *183:21 0.0001167
44 *314:A1 *254:23 3.20076e-06
45 *368:A1 grant[29] 3.03823e-06
46 *368:A1 *297:A1 8.4279e-06
47 *368:A1 *368:A2 1.67775e-05
48 *368:A1 *60:23 0
49 *368:A1 *172:14 3.36873e-05
50 *374:A3 *297:A1 2.39679e-06
51 *374:A3 *485:A1 0
52 *374:A3 *8:18 5.08058e-05
53 *374:A3 *60:51 1.68643e-06
54 *375:A2 *375:A3 1.26998e-05
55 *375:A2 *456:A 5.66249e-05
56 *375:A2 *459:C1 4.12459e-06
57 *375:A2 *49:14 1.67775e-05
58 *375:A2 *64:12 1.92727e-05
59 *375:A2 *223:21 0
60 *383:A3 grant[47] 3.17384e-05
61 *383:A3 *381:A1 7.72537e-06
62 *383:A3 *381:A3 7.72792e-06
63 *383:A3 *383:A4 3.89683e-05
64 *383:A3 *180:8 1.27666e-06
65 *384:A2 *384:A3 2.39679e-06
66 *384:A2 *479:A 0
67 *384:A2 *486:A3 0
68 *384:A2 *262:13 1.28122e-06
69 *7:8 *55:12 4.30934e-06
70 *7:8 *183:21 2.96616e-05
71 *7:12 *466:A4 6.56341e-05
72 *7:12 *217:12 0
73 *7:12 *220:8 0
74 *7:14 *359:A2 4.12459e-06
75 *7:14 *466:A4 1.26998e-05
76 *7:41 *384:A1 6.32461e-06
77 *7:41 *486:A3 6.49309e-05
78 *7:41 *498:B2 0.000107092
79 *7:41 *498:C1 7.58428e-05
80 *7:41 *54:8 1.24005e-05
81 *7:41 *54:26 4.43868e-06
82 *7:41 *219:8 0.000345115
83 *7:41 *281:9 7.86594e-05
84 *7:41 *282:49 1.30415e-05
85 *7:43 *384:A1 7.84208e-05
86 *7:43 *281:9 4.4471e-05
87 *7:45 *384:A1 4.26134e-05
88 *7:45 *177:10 0.000100795
89 *7:45 *281:9 3.01743e-06
90 *7:51 grant[29] 1.94929e-05
91 *7:51 *384:A1 3.18563e-05
92 *7:51 *60:51 0
93 *7:51 *177:10 9.1774e-05
94 *7:64 *381:A4 3.02351e-05
95 *7:64 *60:29 9.16134e-05
96 *7:64 *69:8 5.39607e-05
97 *7:64 *281:9 5.20238e-07
98 *7:84 *297:A1 1.26998e-05
99 *7:84 *60:51 4.9678e-06
100 *292:A *7:12 0
101 *318:A1 *307:A1 8.39366e-06
102 *6:34 *314:A1 9.38795e-05
*RES
1 *292:Z *7:8 11.6071 
2 *7:8 *7:12 11.25 
3 *7:12 *7:14 1.25 
4 *7:14 *307:A1 47.3572 
5 *7:14 *7:41 45.2857 
6 *7:41 *7:43 11.1071 
7 *7:43 *7:45 6.35715 
8 *7:45 *7:51 14.75 
9 *7:51 *368:A1 19.75 
10 *7:51 *7:64 15.6786 
11 *7:64 *381:A2 5 
12 *7:64 *383:A3 11.4286 
13 *7:45 *7:84 6.25 
14 *7:84 *352:A1 5 
15 *7:84 *374:A3 14.75 
16 *7:43 *375:A2 22.4286 
17 *7:41 *384:A2 11.25 
18 *7:12 *359:A1 5 
19 *7:8 *314:A1 35.1072 
*END

*D_NET *8 0.00125021
*CONN
*I *352:A2 I *D OR3_X1
*I *297:A1 I *D NAND4_X4
*I *293:ZN O *D NOR4_X2
*CAP
1 *352:A2 0
2 *297:A1 0.000263441
3 *293:ZN 0.000156329
4 *8:18 0.00041977
5 *297:A1 *297:A2 6.38328e-07
6 *297:A1 *351:A3 0
7 *297:A1 *368:A2 2.9171e-06
8 *297:A1 *382:A 3.09411e-06
9 *297:A1 *11:23 0
10 *297:A1 *48:14 9.31047e-06
11 *297:A1 *48:25 8.43215e-07
12 *297:A1 *60:8 7.14424e-06
13 *297:A1 *60:23 4.10126e-05
14 *297:A1 *60:51 8.46545e-06
15 *297:A1 *172:14 0
16 *297:A1 *218:8 0
17 *8:18 *352:A3 1.76665e-06
18 *8:18 *372:A2 1.77197e-05
19 *8:18 *374:A1 9.83877e-06
20 *8:18 *374:A2 2.42461e-05
21 *8:18 *375:A1 2.90423e-05
22 *8:18 *485:A1 0
23 *8:18 *48:25 9.31696e-05
24 *8:18 *63:6 4.00586e-05
25 *8:18 *178:23 1.87369e-06
26 *8:18 *179:23 3.40582e-05
27 *8:18 *249:17 7.66905e-06
28 *8:18 *282:43 3.46864e-06
29 *368:A1 *297:A1 8.4279e-06
30 *374:A3 *297:A1 2.39679e-06
31 *374:A3 *8:18 5.08058e-05
32 *7:84 *297:A1 1.26998e-05
*RES
1 *293:ZN *8:18 40.1786 
2 *8:18 *297:A1 44.6429 
3 *8:18 *352:A2 5 
*END

*D_NET *9 0.00172695
*CONN
*I *379:A2 I *D AND4_X1
*I *367:A1 I *D NAND2_X1
*I *351:A1 I *D NAND3_X1
*I *297:A2 I *D NAND4_X4
*I *388:A1 I *D NAND2_X1
*I *294:ZN O *D NOR4_X4
*CAP
1 *379:A2 6.96571e-05
2 *367:A1 7.29024e-05
3 *351:A1 0
4 *297:A2 6.18622e-05
5 *388:A1 3.0415e-05
6 *294:ZN 9.34543e-05
7 *9:25 0.000252866
8 *9:19 0.000255444
9 *9:8 0.000191555
10 *297:A2 *351:A3 5.10725e-05
11 *297:A2 *172:8 0
12 *297:A2 *172:14 0
13 *367:A1 *367:A2 2.61381e-05
14 *367:A1 *10:17 2.04239e-05
15 *367:A1 *48:14 4.88878e-05
16 *379:A2 *379:A1 1.19839e-05
17 *379:A2 *379:A4 2.15486e-05
18 *379:A2 *223:21 4.62738e-05
19 *388:A1 *479:A 0
20 *388:A1 *67:37 1.71452e-05
21 *9:8 *479:A 0
22 *9:8 *67:37 4.47825e-05
23 *9:19 *379:A4 0
24 *9:19 *403:A2 0
25 *9:19 *215:16 0.000183685
26 *9:25 *10:10 3.70344e-05
27 *9:25 *10:17 2.39679e-06
28 *9:25 *48:14 2.61469e-06
29 *9:25 *215:16 0.000184167
30 *297:A1 *297:A2 6.38328e-07
*RES
1 *294:ZN *9:8 16.1786 
2 *9:8 *388:A1 8.75 
3 *9:8 *9:19 14.75 
4 *9:19 *9:25 21.5 
5 *9:25 *297:A2 22.0357 
6 *9:25 *351:A1 5 
7 *9:25 *367:A1 16.1786 
8 *9:19 *379:A2 19.25 
*END

*D_NET *10 0.000697491
*CONN
*I *367:A2 I *D NAND2_X1
*I *297:A3 I *D NAND4_X4
*I *351:A2 I *D NAND3_X1
*I *295:ZN O *D NOR4_X4
*CAP
1 *367:A2 3.13219e-05
2 *297:A3 8.45052e-06
3 *351:A2 0
4 *295:ZN 0.000142092
5 *10:17 6.48142e-05
6 *10:10 0.000167134
7 *297:A3 *297:A4 4.24423e-05
8 *297:A3 *189:8 4.24423e-05
9 *367:A2 *351:A3 4.97191e-06
10 *367:A2 *11:23 5.67552e-05
11 *10:10 *351:A3 2.39679e-06
12 *10:17 *351:A3 4.86757e-05
13 *367:A1 *367:A2 2.61381e-05
14 *367:A1 *10:17 2.04239e-05
15 *9:25 *10:10 3.70344e-05
16 *9:25 *10:17 2.39679e-06
*RES
1 *295:ZN *10:10 20.9286 
2 *10:10 *351:A2 5 
3 *10:10 *10:17 4.75 
4 *10:17 *297:A3 17.2857 
5 *10:17 *367:A2 10.75 
*END

*D_NET *11 0.00107811
*CONN
*I *297:A4 I *D NAND4_X4
*I *351:A3 I *D NAND3_X1
*I *368:A3 I *D NOR3_X1
*I *296:ZN O *D NOR4_X4
*CAP
1 *297:A4 5.31846e-05
2 *351:A3 2.53686e-05
3 *368:A3 8.61691e-06
4 *296:ZN 4.34148e-05
5 *11:23 0.000158453
6 *11:8 0.000131932
7 *297:A4 *48:14 1.39839e-06
8 *297:A4 *61:17 0
9 *297:A4 *189:8 2.35942e-05
10 *297:A4 *223:21 0
11 *368:A3 *368:A2 1.19839e-05
12 *368:A3 *172:14 1.19839e-05
13 *11:8 *369:A2 3.02351e-05
14 *11:8 *261:9 0.000131821
15 *11:23 *368:A2 7.76093e-05
16 *11:23 *60:8 3.84423e-05
17 *11:23 *261:9 0.000123759
18 *297:A1 *351:A3 0
19 *297:A1 *11:23 0
20 *297:A2 *351:A3 5.10725e-05
21 *297:A3 *297:A4 4.24423e-05
22 *367:A2 *351:A3 4.97191e-06
23 *367:A2 *11:23 5.67552e-05
24 *10:10 *351:A3 2.39679e-06
25 *10:17 *351:A3 4.86757e-05
*RES
1 *296:ZN *11:8 17.0357 
2 *11:8 *368:A3 11.25 
3 *11:8 *11:23 18.2857 
4 *11:23 *351:A3 10.25 
5 *11:23 *297:A4 21.4286 
*END

*D_NET *12 0.00453758
*CONN
*I *318:A2 I *D NOR4_X4
*I *307:A2 I *D NOR4_X2
*I *335:A2 I *D NOR3_X2
*I *314:A2 I *D NOR4_X2
*I *359:A2 I *D NOR2_X1
*I *327:A2 I *D NOR4_X2
*I *378:A2 I *D AND2_X1
*I *458:A4 I *D NAND4_X1
*I *297:ZN O *D NAND4_X4
*CAP
1 *318:A2 0
2 *307:A2 0.000108515
3 *335:A2 0
4 *314:A2 0.000113916
5 *359:A2 6.14696e-05
6 *327:A2 0.000182705
7 *378:A2 0
8 *458:A4 0
9 *297:ZN 0.000253438
10 *12:86 0.000174075
11 *12:66 0.000197176
12 *12:62 0.000189994
13 *12:51 0.00016491
14 *12:32 0.000301098
15 *12:21 0.0001518
16 *12:10 0.000349112
17 *307:A2 *307:A3 8.79505e-05
18 *307:A2 *307:A4 3.7184e-05
19 *307:A2 *466:A4 0
20 *314:A2 grant[25] 0.000196952
21 *314:A2 *492:A2 0
22 *314:A2 *39:8 1.87637e-06
23 *327:A2 *327:A3 1.22742e-05
24 *327:A2 *489:A1 0.000162959
25 *327:A2 *489:A2 4.32144e-07
26 *327:A2 *491:A2 1.88334e-06
27 *327:A2 *498:C2 6.29371e-05
28 *327:A2 *499:A 1.09818e-05
29 *327:A2 *55:12 2.93269e-06
30 *327:A2 *66:10 0
31 *327:A2 *156:22 0.000126734
32 *327:A2 *183:21 7.83546e-06
33 *359:A2 *466:A4 2.64098e-06
34 *359:A2 *217:12 0
35 *12:10 *459:A 0
36 *12:10 *459:B 5.45247e-05
37 *12:10 *48:14 0
38 *12:10 *218:8 5.99213e-05
39 *12:10 *223:21 0
40 *12:21 *458:A2 0.00028392
41 *12:21 *459:B 2.66872e-06
42 *12:21 *138:10 4.12796e-06
43 *12:21 *218:8 6.55659e-05
44 *12:32 *378:A1 7.19036e-06
45 *12:32 *499:A 6.06867e-06
46 *12:32 *66:10 3.45492e-05
47 *12:32 *115:10 9.23841e-05
48 *12:32 *138:10 1.40411e-05
49 *12:32 *156:22 0
50 *12:51 *115:10 0.000206131
51 *12:51 *138:10 3.14015e-05
52 *12:62 *115:10 0.000143706
53 *12:62 *138:10 2.25866e-05
54 *12:66 *360:A1 2.52965e-06
55 *12:66 *466:A4 0
56 *12:66 *492:A2 0
57 *12:66 *55:8 9.83877e-06
58 *12:66 *143:6 0
59 *12:86 *307:A3 2.75346e-06
60 *12:86 *115:10 2.89018e-05
61 *12:86 *138:10 3.34324e-06
62 *12:86 *254:33 2.20426e-05
63 *307:A1 *307:A2 3.30252e-05
64 *307:A1 *359:A2 2.03335e-05
65 *307:A1 *12:66 1.08036e-06
66 *314:A1 *314:A2 0.000192158
67 *318:A1 *307:A2 2.75346e-06
68 *318:A1 *12:66 0.000117147
69 *318:A1 *12:86 9.64572e-05
70 *6:19 *327:A2 4.30918e-06
71 *6:34 *314:A2 4.21607e-06
72 *7:14 *359:A2 4.12459e-06
*RES
1 *297:ZN *12:10 40.1072 
2 *12:10 *458:A4 10 
3 *12:10 *12:21 22.2143 
4 *12:21 *378:A2 5 
5 *12:21 *12:32 13.75 
6 *12:32 *327:A2 48.6072 
7 *12:32 *12:51 11.1071 
8 *12:51 *359:A2 16.75 
9 *12:51 *12:62 7.71429 
10 *12:62 *12:66 16.25 
11 *12:66 *314:A2 25.6786 
12 *12:66 *335:A2 5 
13 *12:62 *12:86 15.8571 
14 *12:86 *307:A2 21.1429 
15 *12:86 *318:A2 5 
*END

*D_NET *13 0.0011602
*CONN
*I *302:A1 I *D NAND4_X1
*I *334:A1 I *D AND4_X4
*I *314:A3 I *D NOR4_X2
*I *298:ZN O *D NOR4_X2
*CAP
1 *302:A1 0
2 *334:A1 4.01856e-05
3 *314:A3 1.64384e-05
4 *298:ZN 0.000161018
5 *13:31 6.90185e-05
6 *13:10 0.000206289
7 *314:A3 *314:A4 4.59074e-06
8 *314:A3 *249:9 4.03601e-06
9 *334:A1 *14:12 9.24246e-06
10 *334:A1 *15:8 4.08132e-05
11 *334:A1 *15:14 0.000104262
12 *334:A1 *248:9 0.000165351
13 *13:10 *330:A1 2.39679e-06
14 *13:10 *181:16 6.83898e-05
15 *13:10 *183:25 0.000159965
16 *13:10 *249:9 2.84292e-05
17 *13:31 grant[2] 3.80969e-05
18 *13:31 *249:9 3.04165e-06
19 *13:31 *254:23 3.8632e-05
*RES
1 *298:ZN *13:10 33.3929 
2 *13:10 *314:A3 12.3571 
3 *13:10 *13:31 10 
4 *13:31 *334:A1 24.0714 
5 *13:31 *302:A1 5 
*END

*D_NET *14 0.00313393
*CONN
*I *336:A2 I *D AND4_X1
*I *348:A1 I *D NAND2_X1
*I *346:A2 I *D AND4_X1
*I *350:A2 I *D AND3_X1
*I *302:A2 I *D NAND4_X1
*I *334:A2 I *D AND4_X4
*I *313:A1 I *D NAND3_X1
*I *326:A1 I *D NAND2_X1
*I *489:A1 I *D NOR2_X1
*I *299:ZN O *D NOR4_X4
*CAP
1 *336:A2 4.58772e-05
2 *348:A1 0
3 *346:A2 1.89319e-06
4 *350:A2 6.49723e-05
5 *302:A2 9.75146e-06
6 *334:A2 9.90438e-06
7 *313:A1 1.17636e-05
8 *326:A1 8.11938e-06
9 *489:A1 0.000118923
10 *299:ZN 0.000103212
11 *14:80 8.43123e-05
12 *14:76 0.000115094
13 *14:72 0.000183399
14 *14:16 0.000158153
15 *14:14 6.33402e-05
16 *14:12 7.58329e-05
17 *14:10 0.000118551
18 *302:A2 *302:A3 7.19036e-06
19 *302:A2 *254:23 1.19839e-05
20 *313:A1 *313:A2 2.39679e-06
21 *313:A1 *327:A4 2.52965e-06
22 *313:A1 *16:16 1.68643e-06
23 *313:A1 *16:43 2.52965e-06
24 *326:A1 *156:22 0
25 *326:A1 *242:17 1.0303e-05
26 *334:A2 *302:A4 7.16188e-07
27 *334:A2 *16:43 1.40196e-06
28 *334:A2 *121:10 5.52959e-06
29 *336:A2 *300:A4 8.43215e-07
30 *336:A2 *336:A3 2.39679e-06
31 *336:A2 *170:17 8.64288e-07
32 *336:A2 *237:9 1.36811e-05
33 *336:A2 *237:13 4.21607e-06
34 *336:A2 *245:9 8.06346e-05
35 *336:A2 *248:9 0.000138991
36 *336:A2 *249:9 5.10087e-06
37 *346:A2 *481:A1 4.45118e-06
38 *350:A2 *349:A1 2.81877e-05
39 *350:A2 *350:A1 2.76662e-05
40 *350:A2 *350:A3 2.93842e-06
41 *350:A2 *481:A1 2.73919e-06
42 *350:A2 *40:50 2.94455e-05
43 *350:A2 *40:59 2.5697e-05
44 *350:A2 *152:33 7.21335e-06
45 *350:A2 *152:35 5.38636e-06
46 *350:A2 *240:44 3.09411e-06
47 *350:A2 *285:12 0
48 *489:A1 *327:A4 3.01743e-06
49 *489:A1 *489:A2 8.43215e-07
50 *489:A1 *498:C2 1.90208e-06
51 *489:A1 *35:12 9.9897e-06
52 *489:A1 *156:22 4.169e-05
53 *489:A1 *248:13 2.96198e-05
54 *14:10 *15:8 0.000204502
55 *14:10 *183:25 7.19036e-06
56 *14:10 *242:21 7.22721e-05
57 *14:10 *242:32 1.52083e-06
58 *14:10 *244:21 6.48216e-07
59 *14:12 *15:8 1.19543e-05
60 *14:12 *15:14 0.000104585
61 *14:12 *242:21 5.34806e-05
62 *14:12 *248:9 2.37916e-06
63 *14:14 *16:43 2.99753e-05
64 *14:14 *242:21 2.3613e-05
65 *14:14 *248:9 6.8187e-06
66 *14:16 *327:A4 1.90574e-06
67 *14:16 *16:43 2.96955e-05
68 *14:16 *242:21 2.79484e-05
69 *14:16 *248:13 2.06398e-05
70 *14:72 *245:9 0.000192838
71 *14:72 *248:9 0.000192838
72 *14:76 *300:A1 5.34233e-06
73 *14:76 *346:A1 0.000108536
74 *14:76 *481:A1 2.16072e-07
75 *14:76 *238:21 1.11435e-06
76 *14:76 *238:25 1.21752e-05
77 *14:76 *247:9 6.8241e-05
78 *14:76 *285:12 2.78705e-05
79 *14:80 *481:A1 2.16072e-07
80 *14:80 *481:A2 1.09132e-05
81 *14:80 *285:12 1.29608e-06
82 *314:A1 *302:A2 4.32144e-07
83 *327:A2 *489:A1 0.000162959
84 *334:A1 *14:12 9.24246e-06
85 *6:19 *489:A1 5.05947e-05
*RES
1 *299:ZN *14:10 21.8571 
2 *14:10 *14:12 8.39286 
3 *14:12 *14:14 3.64286 
4 *14:14 *14:16 5 
5 *14:16 *489:A1 29.75 
6 *14:16 *326:A1 11 
7 *14:14 *313:A1 11.25 
8 *14:12 *334:A2 11.25 
9 *14:10 *302:A2 11.25 
10 *299:ZN *14:72 20.4286 
11 *14:72 *14:76 21.75 
12 *14:76 *14:80 2.32143 
13 *14:80 *350:A2 24.8571 
14 *14:80 *346:A2 5.46429 
15 *14:76 *348:A1 5 
16 *14:72 *336:A2 18.9643 
*END

*D_NET *15 0.00196267
*CONN
*I *302:A3 I *D NAND4_X1
*I *313:A2 I *D NAND3_X1
*I *326:A2 I *D NAND2_X1
*I *334:A3 I *D AND4_X4
*I *300:ZN O *D NOR4_X2
*CAP
1 *302:A3 6.09993e-06
2 *313:A2 1.11675e-05
3 *326:A2 4.22316e-05
4 *334:A3 0
5 *300:ZN 0.000221301
6 *15:27 0.000101568
7 *15:14 7.73835e-05
8 *15:8 0.000256615
9 *313:A2 *302:A4 1.86809e-06
10 *313:A2 *16:14 7.19036e-06
11 *313:A2 *16:16 2.39679e-06
12 *313:A2 *220:8 1.68643e-06
13 *326:A2 *327:A3 3.37286e-06
14 *326:A2 *16:14 9.06859e-05
15 *326:A2 *237:9 3.49296e-05
16 *326:A2 *242:17 8.64288e-07
17 *326:A2 *248:13 4.12796e-06
18 *15:8 *299:A2 2.49497e-05
19 *15:8 *299:A3 4.99928e-06
20 *15:8 *299:A4 5.48932e-05
21 *15:8 *171:10 4.025e-07
22 *15:8 *242:32 1.44264e-05
23 *15:8 *244:17 0.000143235
24 *15:8 *247:13 0
25 *15:8 *248:9 0.000147168
26 *15:14 *121:10 7.72537e-06
27 *15:27 *302:A4 7.93876e-05
28 *15:27 *121:10 1.43807e-05
29 *15:27 *237:9 0.000118152
30 *15:27 *248:9 9.9131e-06
31 *15:27 *248:13 1.3143e-06
32 *302:A2 *302:A3 7.19036e-06
33 *313:A1 *313:A2 2.39679e-06
34 *314:A1 *302:A3 2.52965e-06
35 *334:A1 *15:8 4.08132e-05
36 *334:A1 *15:14 0.000104262
37 *14:10 *15:8 0.000204502
38 *14:12 *15:8 1.19543e-05
39 *14:12 *15:14 0.000104585
*RES
1 *300:ZN *15:8 43.5 
2 *15:8 *15:14 11.4286 
3 *15:14 *334:A3 5 
4 *15:14 *15:27 13.8571 
5 *15:27 *326:A2 16.6786 
6 *15:27 *313:A2 11.25 
7 *15:8 *302:A3 10.75 
*END

*D_NET *16 0.00177397
*CONN
*I *313:A3 I *D NAND3_X1
*I *302:A4 I *D NAND4_X1
*I *334:A4 I *D AND4_X4
*I *327:A4 I *D NOR4_X2
*I *301:ZN O *D NOR4_X4
*CAP
1 *313:A3 0
2 *302:A4 5.89522e-05
3 *334:A4 0
4 *327:A4 8.04218e-05
5 *301:ZN 0.000115259
6 *16:43 7.92286e-05
7 *16:16 0.000105445
8 *16:14 0.000120006
9 *302:A4 *121:10 0
10 *302:A4 *237:9 3.18528e-05
11 *302:A4 *248:9 0.000167188
12 *302:A4 *254:23 6.48216e-07
13 *327:A4 *35:12 3.1837e-05
14 *327:A4 *121:10 0
15 *327:A4 *156:22 1.25976e-05
16 *327:A4 *220:8 2.92804e-05
17 *327:A4 *241:9 3.78828e-05
18 *327:A4 *242:17 1.27666e-06
19 *327:A4 *242:21 1.87059e-05
20 *16:14 *301:A4 8.26038e-06
21 *16:14 *327:A3 7.85957e-05
22 *16:14 *94:10 3.09411e-06
23 *16:14 *220:8 4.79358e-06
24 *16:14 *236:21 8.08641e-05
25 *16:14 *237:9 5.3197e-07
26 *16:14 *248:13 0.000401503
27 *16:16 *220:8 4.97191e-06
28 *16:43 *248:9 8.89684e-06
29 *16:43 *248:13 2.96955e-05
30 *313:A1 *327:A4 2.52965e-06
31 *313:A1 *16:16 1.68643e-06
32 *313:A1 *16:43 2.52965e-06
33 *313:A2 *302:A4 1.86809e-06
34 *313:A2 *16:14 7.19036e-06
35 *313:A2 *16:16 2.39679e-06
36 *314:A1 *302:A4 7.19036e-06
37 *326:A2 *16:14 9.06859e-05
38 *334:A2 *302:A4 7.16188e-07
39 *334:A2 *16:43 1.40196e-06
40 *489:A1 *327:A4 3.01743e-06
41 *14:14 *16:43 2.99753e-05
42 *14:16 *327:A4 1.90574e-06
43 *14:16 *16:43 2.96955e-05
44 *15:27 *302:A4 7.93876e-05
*RES
1 *301:ZN *16:14 38.4643 
2 *16:14 *16:16 0.75 
3 *16:16 *327:A4 26.6071 
4 *16:16 *16:43 13.7143 
5 *16:43 *334:A4 5 
6 *16:43 *302:A4 26.0714 
7 *16:14 *313:A3 5 
*END

*D_NET *17 0.00146646
*CONN
*I *318:A3 I *D NOR4_X4
*I *307:A3 I *D NOR4_X2
*I *360:A2 I *D NAND2_X1
*I *302:ZN O *D NAND4_X1
*CAP
1 *318:A3 0
2 *307:A3 0.00010023
3 *360:A2 2.59942e-05
4 *302:ZN 0.000120365
5 *17:23 0.000215801
6 *17:8 0.00026193
7 *307:A3 *306:A1 0
8 *307:A3 *307:A4 1.01428e-05
9 *307:A3 *127:10 7.48003e-06
10 *307:A3 *154:8 2.90224e-06
11 *307:A3 *173:16 6.32202e-06
12 *307:A3 *254:33 4.94918e-05
13 *360:A2 *360:A1 3.02351e-05
14 *360:A2 *219:8 1.73458e-05
15 *360:A2 *282:49 1.74984e-05
16 *17:8 *254:23 5.83729e-05
17 *17:8 *254:33 9.44743e-06
18 *17:23 grant[2] 0.000156409
19 *17:23 *219:8 1.25735e-05
20 *17:23 *232:13 6.96231e-05
21 *17:23 *254:33 4.31185e-06
22 *17:23 *282:49 2.41311e-05
23 *307:A2 *307:A3 8.79505e-05
24 *314:A1 *17:8 1.70575e-05
25 *318:A1 *17:8 4.91133e-05
26 *6:34 *17:8 0.000108976
27 *12:86 *307:A3 2.75346e-06
*RES
1 *302:ZN *17:8 28.75 
2 *17:8 *360:A2 14.3214 
3 *17:8 *17:23 24.3929 
4 *17:23 *307:A3 29.8214 
5 *17:23 *318:A3 5 
*END

*D_NET *18 0.00187097
*CONN
*I *450:A1 I *D AND2_X2
*I *493:A2 I *D NOR2_X1
*I *445:A1 I *D AND2_X1
*I *317:A2 I *D AND4_X1
*I *306:A1 I *D NAND3_X1
*I *303:ZN O *D NOR4_X2
*CAP
1 *450:A1 0.00017364
2 *493:A2 6.18763e-05
3 *445:A1 0
4 *317:A2 8.33801e-06
5 *306:A1 2.82076e-05
6 *303:ZN 6.08825e-06
7 *18:18 6.73392e-05
8 *18:14 5.52663e-05
9 *18:12 0.000166169
10 *18:8 0.000259548
11 *306:A1 *306:A3 4.77786e-06
12 *306:A1 *254:33 0
13 *317:A2 *445:A2 9.58715e-06
14 *317:A2 *19:14 2.39679e-06
15 *450:A1 *303:A2 1.91582e-05
16 *450:A1 *450:A2 0.000102946
17 *450:A1 *506:A1 6.54111e-06
18 *450:A1 *506:A3 1.43637e-05
19 *450:A1 *188:20 4.16464e-05
20 *450:A1 *214:16 1.08981e-05
21 *450:A1 *224:13 8.7296e-06
22 *450:A1 *226:39 6.28503e-05
23 *450:A1 *259:11 9.83877e-06
24 *450:A1 *259:15 4.45767e-06
25 *450:A1 *265:17 4.04557e-06
26 *493:A2 *496:A 1.77822e-05
27 *493:A2 *116:12 0.000195216
28 *493:A2 *191:10 2.40655e-06
29 *493:A2 *191:26 4.70559e-05
30 *493:A2 *226:35 1.46625e-05
31 *493:A2 *232:13 9.09239e-06
32 *493:A2 *254:33 8.43376e-06
33 *18:8 *30:14 7.72792e-06
34 *18:8 *130:10 0
35 *18:12 *506:A1 3.48838e-06
36 *18:12 *191:26 5.31224e-05
37 *18:12 *226:39 0.000269346
38 *18:14 *445:A2 2.75346e-06
39 *18:14 *232:13 1.49912e-05
40 *18:14 *254:33 1.50541e-05
41 *18:18 *307:A4 0
42 *18:18 *445:A2 3.8466e-05
43 *18:18 *254:33 3.28594e-05
44 *307:A3 *306:A1 0
45 *317:A1 *306:A1 8.95864e-06
46 *317:A1 *317:A2 8.43215e-07
*RES
1 *303:ZN *18:8 10.75 
2 *18:8 *18:12 19.5 
3 *18:12 *18:14 3.75 
4 *18:14 *18:18 5.35714 
5 *18:18 *306:A1 8.53572 
6 *18:18 *317:A2 6.25 
7 *18:14 *445:A1 5 
8 *18:12 *493:A2 27.6786 
9 *18:8 *450:A1 34.1786 
*END

*D_NET *19 0.00139517
*CONN
*I *445:A2 I *D AND2_X1
*I *317:A3 I *D AND4_X1
*I *306:A2 I *D NAND3_X1
*I *304:ZN O *D NOR4_X1
*CAP
1 *445:A2 4.13447e-05
2 *317:A3 0
3 *306:A2 2.61122e-05
4 *304:ZN 0.000105586
5 *19:14 0.000324257
6 *19:8 0.000362385
7 *306:A2 *122:16 0
8 *306:A2 *206:19 6.68461e-05
9 *445:A2 *317:A4 1.19839e-05
10 *445:A2 *318:A4 8.48296e-06
11 *445:A2 *232:13 2.75346e-06
12 *445:A2 *232:25 3.97695e-06
13 *19:8 *452:A2 0
14 *19:8 *476:A2 0
15 *19:8 *488:A2 1.82068e-05
16 *19:8 *108:10 3.83453e-06
17 *19:8 *109:12 0
18 *19:8 *110:10 0
19 *19:8 *222:21 1.25189e-05
20 *19:8 *223:33 1.11106e-05
21 *19:8 *223:35 4.16476e-06
22 *19:14 *317:A4 2.39679e-06
23 *19:14 *488:A2 5.39412e-06
24 *19:14 *156:8 8.34091e-06
25 *19:14 *156:12 5.04104e-05
26 *19:14 *215:8 4.50983e-05
27 *19:14 *232:25 1.1499e-05
28 *19:14 *285:10 0.000199026
29 *317:A1 *19:14 1.6238e-05
30 *317:A2 *445:A2 9.58715e-06
31 *317:A2 *19:14 2.39679e-06
32 *18:14 *445:A2 2.75346e-06
33 *18:18 *445:A2 3.8466e-05
*RES
1 *304:ZN *19:8 21.75 
2 *19:8 *19:14 42.8572 
3 *19:14 *306:A2 18.6429 
4 *19:14 *317:A3 5 
5 *19:14 *445:A2 11.6071 
*END

*D_NET *20 0.00175738
*CONN
*I *317:A4 I *D AND4_X1
*I *306:A3 I *D NAND3_X1
*I *305:ZN O *D NOR4_X1
*CAP
1 *317:A4 1.14181e-05
2 *306:A3 3.85812e-05
3 *305:ZN 0
4 *20:8 0.000383597
5 *20:6 0.000333597
6 *306:A3 *307:A4 1.30565e-05
7 *306:A3 *22:16 1.72426e-05
8 *306:A3 *206:19 9.22959e-05
9 *306:A3 *254:33 1.43544e-05
10 *306:A3 *259:15 0
11 *317:A4 *232:25 1.83053e-06
12 *20:8 *318:A4 4.65939e-06
13 *20:8 *450:A2 8.70312e-06
14 *20:8 *106:8 1.63544e-05
15 *20:8 *106:19 2.93614e-05
16 *20:8 *139:16 0
17 *20:8 *206:8 9.88157e-05
18 *20:8 *206:19 0.000674359
19 *20:8 *226:47 0
20 *20:8 *259:15 0
21 *20:8 *265:17 0
22 *306:A1 *306:A3 4.77786e-06
23 *445:A2 *317:A4 1.19839e-05
24 *19:14 *317:A4 2.39679e-06
*RES
1 *305:ZN *20:6 10 
2 *20:6 *20:8 50.4643 
3 *20:8 *306:A3 16.25 
4 *20:8 *317:A4 11.25 
*END

*D_NET *21 0.00024767
*CONN
*I *307:A4 I *D NOR4_X2
*I *306:ZN O *D NAND3_X1
*CAP
1 *307:A4 6.57373e-05
2 *306:ZN 6.57373e-05
3 *307:A4 *466:A4 0
4 *307:A4 *22:16 4.94704e-05
5 *307:A4 *254:33 1.91498e-06
6 *307:A4 *254:45 1.87369e-06
7 *306:A3 *307:A4 1.30565e-05
8 *307:A2 *307:A4 3.7184e-05
9 *307:A3 *307:A4 1.01428e-05
10 *317:A1 *307:A4 2.55331e-06
11 *18:18 *307:A4 0
*RES
1 *306:ZN *307:A4 21.1429 
*END

*D_NET *22 0.0013306
*CONN
*I *308:A2 I *D NAND2_X1
*I *309:A I *D INV_X1
*I *468:A3 I *D AND3_X1
*I *440:A3 I *D NAND3_X1
*I *307:ZN O *D NOR4_X2
*CAP
1 *308:A2 0
2 *309:A 0
3 *468:A3 1.08617e-05
4 *440:A3 5.9767e-05
5 *307:ZN 0.000117368
6 *22:45 8.60091e-05
7 *22:20 0.000184722
8 *22:16 0.000167176
9 *440:A3 *286:A4 0
10 *440:A3 *440:A1 6.99525e-06
11 *440:A3 *440:A2 5.13262e-06
12 *440:A3 *102:8 2.26306e-06
13 *440:A3 *153:8 7.94852e-06
14 *440:A3 *222:17 1.55671e-05
15 *440:A3 *254:45 9.00648e-06
16 *440:A3 *257:17 4.26902e-05
17 *468:A3 *310:A4 1.77822e-05
18 *468:A3 *23:23 4.29819e-05
19 *468:A3 *243:37 1.27467e-05
20 *468:A3 *243:43 4.18985e-05
21 *22:16 *206:19 8.25592e-06
22 *22:16 *254:33 4.61652e-05
23 *22:16 *254:45 0.000124427
24 *22:20 *254:45 3.22376e-05
25 *22:45 *468:A1 8.43215e-07
26 *22:45 *468:A2 4.32144e-07
27 *22:45 *153:8 3.41738e-05
28 *22:45 *221:9 0.000145066
29 *22:45 *222:17 2.91785e-06
30 *22:45 *232:25 4.3456e-06
31 *22:45 *243:43 3.09143e-06
32 *306:A3 *22:16 1.72426e-05
33 *307:A4 *22:16 4.94704e-05
34 *317:A1 *22:16 0
35 *1:6 *22:20 3.10155e-05
*RES
1 *307:ZN *22:16 32.2143 
2 *22:16 *22:20 12.25 
3 *22:20 *440:A3 28.0714 
4 *22:20 *22:45 16.6429 
5 *22:45 *468:A3 17.9643 
6 *22:45 *309:A 5 
7 *22:16 *308:A2 5 
*END

*D_NET *23 0.00060731
*CONN
*I *453:B1 I *D OAI21_X1
*I *443:A2 I *D NOR2_X1
*I *310:A4 I *D NOR4_X2
*I *309:ZN O *D INV_X1
*CAP
1 *453:B1 2.11078e-05
2 *443:A2 5.81063e-05
3 *310:A4 3.74749e-05
4 *309:ZN 0
5 *23:23 0.00011343
6 *23:6 7.16906e-05
7 *310:A4 *468:A1 6.60094e-06
8 *310:A4 *103:14 2.08416e-06
9 *310:A4 *188:10 6.50827e-06
10 *310:A4 *243:43 4.9296e-05
11 *443:A2 *453:B2 8.95483e-06
12 *443:A2 *468:A1 0
13 *443:A2 *103:14 0
14 *453:B1 *109:12 1.88334e-06
15 *453:B1 *188:10 1.18242e-05
16 *453:B1 *243:37 8.14262e-05
17 *23:23 *188:10 2.0025e-05
18 *23:23 *243:37 5.6134e-05
19 *468:A3 *310:A4 1.77822e-05
20 *468:A3 *23:23 4.29819e-05
*RES
1 *309:ZN *23:6 10 
2 *23:6 *310:A4 15.8571 
3 *23:6 *23:23 6.67857 
4 *23:23 *443:A2 15.75 
5 *23:23 *453:B1 14.3214 
*END

*D_NET *24 0.000211835
*CONN
*I *315:A1 I *D AND4_X1
*I *311:ZN O *D INV_X1
*CAP
1 *315:A1 3.67162e-05
2 *311:ZN 3.67162e-05
3 *315:A1 *298:A1 2.75346e-06
4 *315:A1 *298:A4 1.58475e-05
5 *315:A1 *312:A2 3.31276e-05
6 *315:A1 *329:A1 2.58428e-06
7 *315:A1 *331:A2 1.23168e-05
8 *315:A1 *229:15 1.8031e-05
9 *315:A1 *231:30 5.37415e-05
*RES
1 *311:ZN *315:A1 26.2143 
*END

*D_NET *25 0.000532731
*CONN
*I *315:A3 I *D AND4_X1
*I *329:A2 I *D AND3_X1
*I *312:ZN O *D NOR2_X1
*CAP
1 *315:A3 0
2 *329:A2 6.92362e-05
3 *312:ZN 4.27489e-05
4 *25:12 0.000111985
5 *329:A2 *298:A4 8.64288e-07
6 *329:A2 *315:A2 2.75346e-06
7 *329:A2 *315:A4 5.03591e-05
8 *329:A2 *329:A1 5.34233e-06
9 *329:A2 *329:A3 7.72537e-06
10 *329:A2 *477:B1 3.55958e-05
11 *329:A2 *477:B2 1.50296e-06
12 *329:A2 *27:20 1.66988e-05
13 *329:A2 *27:37 7.91414e-05
14 *329:A2 *159:12 1.65484e-05
15 *25:12 *298:A3 3.19164e-07
16 *25:12 *312:A1 1.46689e-05
17 *25:12 *312:A2 0
18 *25:12 *315:A2 4.97191e-06
19 *25:12 *315:A4 2.75346e-06
20 *25:12 *158:10 5.47604e-05
21 *25:12 *169:18 2.94802e-06
22 *25:12 *191:34 1.18066e-05
*RES
1 *312:ZN *25:12 21.2143 
2 *25:12 *329:A2 26 
3 *25:12 *315:A3 5 
*END

*D_NET *26 0.000336108
*CONN
*I *314:A4 I *D NOR4_X2
*I *313:ZN O *D NAND3_X1
*CAP
1 *314:A4 0.000156605
2 *313:ZN 0.000156605
3 *314:A4 *121:10 0
4 *314:A4 *220:8 8.30282e-06
5 *314:A4 *249:9 1.00048e-05
6 *314:A3 *314:A4 4.59074e-06
*RES
1 *313:ZN *314:A4 36.0357 
*END

*D_NET *27 0.00133733
*CONN
*I *332:A2 I *D AND2_X1
*I *330:A2 I *D NAND2_X1
*I *315:A4 I *D AND4_X1
*I *477:A I *D OAI21_X1
*I *329:A3 I *D AND3_X1
*I *314:ZN O *D NOR4_X2
*CAP
1 *332:A2 0
2 *330:A2 0
3 *315:A4 3.87728e-05
4 *477:A 0
5 *329:A3 5.43063e-06
6 *314:ZN 0.000131774
7 *27:37 8.24752e-05
8 *27:20 0.000134463
9 *27:14 0.00014275
10 *27:8 0.000189194
11 *315:A4 *477:B1 3.93465e-06
12 *315:A4 *191:34 6.19054e-05
13 *329:A3 *477:B2 1.39839e-06
14 *27:8 grant[25] 3.25684e-05
15 *27:8 *332:A1 7.72792e-06
16 *27:8 *254:17 3.86595e-05
17 *27:8 *254:23 6.0887e-06
18 *27:14 *332:A1 0.000152442
19 *27:14 *158:10 2.01911e-05
20 *27:20 *159:12 1.64447e-05
21 *27:20 *181:16 5.39044e-05
22 *27:20 *255:13 5.44368e-05
23 *27:37 *238:17 0
24 *314:A1 *27:8 6.0887e-06
25 *329:A2 *315:A4 5.03591e-05
26 *329:A2 *329:A3 7.72537e-06
27 *329:A2 *27:20 1.66988e-05
28 *329:A2 *27:37 7.91414e-05
29 *25:12 *315:A4 2.75346e-06
*RES
1 *314:ZN *27:8 22.6786 
2 *27:8 *27:14 18.3929 
3 *27:14 *27:20 15.9286 
4 *27:20 *329:A3 10.75 
5 *27:20 *27:37 10.6071 
6 *27:37 *477:A 5 
7 *27:37 *315:A4 11.6786 
8 *27:14 *330:A2 5 
9 *27:8 *332:A2 5 
*END

*D_NET *28 0.000538413
*CONN
*I *506:A3 I *D AND4_X1
*I *319:A2 I *D AND3_X2
*I *316:ZN O *D NOR2_X1
*CAP
1 *506:A3 5.0664e-05
2 *319:A2 7.54807e-05
3 *316:ZN 0
4 *28:4 0.000126145
5 *319:A2 *303:A1 3.56012e-06
6 *319:A2 *303:A2 1.30565e-05
7 *319:A2 *303:A4 2.33422e-06
8 *319:A2 *319:A3 1.04906e-05
9 *319:A2 *30:14 6.19844e-05
10 *319:A2 *116:8 1.00845e-05
11 *319:A2 *191:26 1.65202e-06
12 *319:A2 *226:47 2.83077e-06
13 *319:A2 *227:25 3.19164e-07
14 *319:A2 *227:31 1.18547e-06
15 *506:A3 *303:A2 1.32348e-05
16 *506:A3 *450:A2 4.00586e-05
17 *506:A3 *188:20 9.08971e-06
18 *506:A3 *224:13 2.75346e-06
19 *506:A3 *226:39 6.32202e-06
20 *506:A3 *243:35 2.16072e-07
21 *506:A3 *259:15 9.25875e-05
22 *450:A1 *506:A3 1.43637e-05
*RES
1 *316:ZN *28:4 5 
2 *28:4 *319:A2 16.4643 
3 *28:4 *506:A3 23.75 
*END

*D_NET *29 0.000438709
*CONN
*I *318:A4 I *D NOR4_X4
*I *317:ZN O *D AND4_X1
*CAP
1 *318:A4 8.44382e-05
2 *317:ZN 8.44382e-05
3 *318:A4 *499:B1 2.39679e-06
4 *318:A4 *105:6 8.67701e-05
5 *318:A4 *232:13 7.77781e-06
6 *318:A4 *232:25 3.7481e-05
7 *318:A4 *255:19 0.000118568
8 *318:A4 *259:15 3.69646e-06
9 *445:A2 *318:A4 8.48296e-06
10 *20:8 *318:A4 4.65939e-06
*RES
1 *317:ZN *318:A4 35.1071 
*END

*D_NET *30 0.0022858
*CONN
*I *446:A2 I *D AND2_X2
*I *473:A3 I *D NAND3_X2
*I *506:A4 I *D AND4_X1
*I *450:A2 I *D AND2_X2
*I *319:A3 I *D AND3_X2
*I *320:A2 I *D NAND2_X1
*I *322:A2 I *D NAND2_X1
*I *318:ZN O *D NOR4_X4
*CAP
1 *446:A2 7.4528e-05
2 *473:A3 1.5553e-05
3 *506:A4 0
4 *450:A2 0.000121418
5 *319:A3 7.4735e-06
6 *320:A2 0
7 *322:A2 0.000101113
8 *318:ZN 7.45726e-05
9 *30:71 0.000152387
10 *30:47 0.000145009
11 *30:43 0.000125321
12 *30:32 6.28078e-05
13 *30:14 0.000207538
14 *30:8 0.000196908
15 *319:A3 *319:A1 8.43215e-07
16 *319:A3 *116:8 1.26998e-05
17 *322:A2 *321:A2 4.18727e-05
18 *322:A2 *322:A1 8.90117e-06
19 *322:A2 *453:A 0
20 *322:A2 *480:A1 1.7898e-05
21 *322:A2 *130:10 1.11799e-05
22 *322:A2 *227:31 0
23 *446:A2 *446:A1 0.00010161
24 *446:A2 *285:12 0
25 *450:A2 *188:20 6.34373e-06
26 *450:A2 *214:16 1.86444e-05
27 *450:A2 *259:11 4.55656e-05
28 *450:A2 *265:17 1.09659e-05
29 *450:A2 *285:12 1.13266e-05
30 *473:A3 *446:A1 4.12459e-06
31 *473:A3 *139:16 1.18589e-06
32 *473:A3 *285:12 0
33 *30:8 *105:12 7.51534e-05
34 *30:8 *154:8 4.06394e-05
35 *30:14 *320:A1 5.08916e-05
36 *30:14 *321:A2 1.97916e-06
37 *30:14 *130:10 0
38 *30:14 *191:26 3.80944e-05
39 *30:14 *226:47 1.91954e-06
40 *30:32 *105:12 1.48912e-05
41 *30:32 *154:8 6.88612e-06
42 *30:43 *105:12 3.6515e-05
43 *30:43 *154:8 5.77197e-06
44 *30:43 *195:12 2.3767e-06
45 *30:43 *227:21 1.90192e-05
46 *30:47 grant[4] 1.68643e-06
47 *30:47 *224:13 1.87369e-06
48 *30:47 *227:13 1.26998e-05
49 *30:47 *243:27 1.86809e-06
50 *30:47 *243:35 6.38328e-07
51 *30:47 *259:11 3.8632e-05
52 *30:71 *105:12 7.93808e-05
53 *30:71 *195:12 4.51787e-05
54 *319:A2 *319:A3 1.04906e-05
55 *319:A2 *30:14 6.19844e-05
56 *450:A1 *450:A2 0.000102946
57 *506:A3 *450:A2 4.00586e-05
58 *18:8 *30:14 7.72792e-06
59 *20:8 *450:A2 8.70312e-06
*RES
1 *318:ZN *30:8 21.1071 
2 *30:8 *30:14 19.6786 
3 *30:14 *322:A2 17.7857 
4 *30:14 *320:A2 5 
5 *30:8 *30:32 2.28572 
6 *30:32 *319:A3 11.25 
7 *30:32 *30:43 5.67857 
8 *30:43 *30:47 8.75 
9 *30:47 *450:A2 33.9643 
10 *30:47 *506:A4 5 
11 *30:43 *30:71 16.1071 
12 *30:71 *473:A3 6.75 
13 *30:71 *446:A2 15.1786 
*END

*D_NET *31 0.000128581
*CONN
*I *321:A2 I *D NOR2_X1
*I *320:ZN O *D NAND2_X1
*CAP
1 *321:A2 3.92002e-05
2 *320:ZN 3.92002e-05
3 *321:A2 *322:A1 1.21774e-06
4 *321:A2 *227:31 5.11118e-06
5 *322:A2 *321:A2 4.18727e-05
6 *30:14 *321:A2 1.97916e-06
*RES
1 *320:ZN *321:A2 15.3571 
*END

*D_NET *32 0.000191026
*CONN
*I *323:A I *D INV_X1
*I *453:A I *D OAI21_X1
*I *322:ZN O *D NAND2_X1
*CAP
1 *323:A 0
2 *453:A 5.85522e-05
3 *322:ZN 3.68527e-05
4 *32:6 9.5405e-05
5 *453:A *453:B2 2.16072e-07
6 *453:A *173:8 0
7 *453:A *188:20 0
8 *453:A *243:35 0
9 *32:6 *243:35 0
10 *322:A2 *453:A 0
*RES
1 *322:ZN *32:6 8.75 
2 *32:6 *453:A 10.6786 
3 *32:6 *323:A 5 
*END

*D_NET *33 1.98064e-05
*CONN
*I *328:A1 I *D AND4_X1
*I *324:ZN O *D INV_X1
*CAP
1 *328:A1 6.62225e-06
2 *324:ZN 6.62225e-06
3 *328:A1 *301:A4 0
4 *328:A1 *233:41 6.56185e-06
*RES
1 *324:ZN *328:A1 10.9286 
*END

*D_NET *34 0.000668756
*CONN
*I *337:A2 I *D AND3_X1
*I *328:A3 I *D AND4_X1
*I *325:ZN O *D NOR2_X1
*CAP
1 *337:A2 1.81469e-05
2 *328:A3 0
3 *325:ZN 6.6338e-05
4 *34:10 8.44849e-05
5 *337:A2 *337:A1 5.31486e-05
6 *337:A2 *36:23 5.39402e-05
7 *337:A2 *36:29 1.2453e-05
8 *34:10 *337:A1 5.09411e-05
9 *34:10 *486:A2 8.48109e-05
10 *34:10 *36:29 0.000105043
11 *34:10 *165:12 8.53485e-05
12 *34:10 *234:17 5.41015e-05
*RES
1 *325:ZN *34:10 23.9286 
2 *34:10 *328:A3 10 
3 *34:10 *337:A2 13.6429 
*END

*D_NET *35 0.000968206
*CONN
*I *327:A3 I *D NOR4_X2
*I *498:C2 I *D AOI221_X1
*I *326:ZN O *D NAND2_X1
*CAP
1 *327:A3 5.77312e-05
2 *498:C2 0.000104293
3 *326:ZN 6.35246e-05
4 *35:12 0.000225549
5 *327:A3 *491:A1 1.04788e-05
6 *327:A3 *491:A3 4.9185e-06
7 *327:A3 *156:22 1.19839e-05
8 *327:A3 *236:21 7.85957e-05
9 *498:C2 *489:A2 7.19036e-06
10 *498:C2 *491:A1 0.000143269
11 *498:C2 *498:A 3.86294e-05
12 *498:C2 *66:6 3.23723e-07
13 *35:12 *217:12 6.85774e-07
14 *35:12 *241:9 1.36841e-05
15 *35:12 *242:17 1.21774e-06
16 *35:12 *248:13 5.22392e-06
17 *326:A2 *327:A3 3.37286e-06
18 *327:A2 *327:A3 1.22742e-05
19 *327:A2 *498:C2 6.29371e-05
20 *327:A4 *35:12 3.1837e-05
21 *489:A1 *498:C2 1.90208e-06
22 *489:A1 *35:12 9.9897e-06
23 *16:14 *327:A3 7.85957e-05
*RES
1 *326:ZN *35:12 22.1071 
2 *35:12 *498:C2 22.75 
3 *35:12 *327:A3 24.3214 
*END

*D_NET *36 0.00181152
*CONN
*I *337:A3 I *D AND3_X1
*I *328:A4 I *D AND4_X1
*I *339:A3 I *D NAND3_X1
*I *456:C2 I *D AOI211_X1
*I *341:A2 I *D AND2_X1
*I *491:A1 I *D NOR3_X1
*I *327:ZN O *D NOR4_X2
*CAP
1 *337:A3 4.73856e-06
2 *328:A4 7.27155e-06
3 *339:A3 0
4 *456:C2 6.19903e-05
5 *341:A2 0
6 *491:A1 7.44665e-05
7 *327:ZN 0
8 *36:38 9.36175e-05
9 *36:29 0.000167161
10 *36:23 0.000167213
11 *36:19 0.00012912
12 *36:4 0.00017444
13 *328:A4 *301:A4 2.52965e-06
14 *328:A4 *94:10 7.19036e-06
15 *328:A4 *233:41 8.43215e-07
16 *337:A3 *337:A1 8.43215e-07
17 *337:A3 *186:12 7.72792e-06
18 *456:C2 *339:A2 2.39679e-06
19 *456:C2 *456:A 1.65537e-05
20 *456:C2 *456:B 1.26998e-05
21 *456:C2 *456:C1 2.18316e-05
22 *456:C2 *42:6 3.45517e-05
23 *456:C2 *165:12 3.33088e-06
24 *456:C2 *183:10 1.86128e-05
25 *456:C2 *183:21 2.80478e-06
26 *456:C2 *236:43 1.21774e-06
27 *491:A1 *491:A3 6.66103e-05
28 *36:19 *94:10 7.34989e-06
29 *36:19 *166:10 1.79726e-05
30 *36:19 *186:12 5.96468e-05
31 *36:19 *241:9 5.63279e-06
32 *36:19 *248:13 2.32073e-05
33 *36:23 *249:9 1.12115e-05
34 *36:29 *206:33 4.18985e-05
35 *36:29 *234:17 1.70857e-05
36 *36:29 *235:17 4.36039e-05
37 *36:29 *235:25 1.68785e-05
38 *36:29 *236:21 6.56007e-06
39 *36:29 *236:30 6.10735e-05
40 *36:29 *236:43 2.39679e-06
41 *36:29 *249:9 2.02906e-05
42 *36:38 *339:A2 5.12483e-05
43 *36:38 *236:43 2.05143e-05
44 *327:A3 *491:A1 1.04788e-05
45 *337:A2 *36:23 5.39402e-05
46 *337:A2 *36:29 1.2453e-05
47 *498:C2 *491:A1 0.000143269
48 *34:10 *36:29 0.000105043
*RES
1 *327:ZN *36:4 5 
2 *36:4 *491:A1 19.25 
3 *36:4 *36:19 22.7857 
4 *36:19 *36:23 8.64286 
5 *36:23 *36:29 24.5 
6 *36:29 *341:A2 5 
7 *36:29 *36:38 5.67857 
8 *36:38 *456:C2 23.9643 
9 *36:38 *339:A3 5 
10 *36:23 *328:A4 10.75 
11 *36:19 *337:A3 5.75 
*END

*D_NET *37 0.000376323
*CONN
*I *331:A2 I *D NOR2_X1
*I *330:ZN O *D NAND2_X1
*CAP
1 *331:A2 8.6067e-05
2 *330:ZN 8.6067e-05
3 *331:A2 *298:A3 4.16464e-05
4 *331:A2 *298:A4 2.82508e-05
5 *331:A2 *312:A1 5.94167e-07
6 *331:A2 *332:A1 1.21105e-05
7 *331:A2 *158:10 3.02376e-05
8 *331:A2 *191:34 4.77786e-06
9 *331:A2 *228:9 6.70982e-05
10 *331:A2 *231:24 3.56012e-06
11 *331:A2 *231:30 3.5969e-06
12 *315:A1 *331:A2 1.23168e-05
*RES
1 *330:ZN *331:A2 32.3571 
*END

*D_NET *38 0.000199947
*CONN
*I *336:A3 I *D AND4_X1
*I *333:ZN O *D NOR3_X1
*CAP
1 *336:A3 5.58706e-05
2 *333:ZN 5.58706e-05
3 *336:A3 *300:A4 2.61469e-06
4 *336:A3 *336:A4 5.05375e-05
5 *336:A3 *167:12 2.90101e-06
6 *336:A3 *169:12 2.97556e-05
7 *336:A2 *336:A3 2.39679e-06
*RES
1 *333:ZN *336:A3 27.7143 
*END

*D_NET *39 0.000773511
*CONN
*I *335:A3 I *D NOR3_X2
*I *492:A2 I *D NAND2_X1
*I *334:ZN O *D AND4_X4
*CAP
1 *335:A3 2.24936e-05
2 *492:A2 5.702e-05
3 *334:ZN 9.4869e-05
4 *39:8 0.000174383
5 *335:A3 *40:8 7.80943e-05
6 *335:A3 *55:12 1.61002e-06
7 *335:A3 *168:12 7.8888e-05
8 *492:A2 *360:A1 0
9 *492:A2 *466:A4 5.51553e-05
10 *492:A2 *55:8 0
11 *492:A2 *55:12 1.25431e-05
12 *39:8 grant[25] 0.000146871
13 *39:8 *466:A4 0
14 *39:8 *121:10 2.42793e-05
15 *314:A1 *335:A3 4.44127e-06
16 *314:A1 *492:A2 2.09871e-05
17 *314:A2 *492:A2 0
18 *314:A2 *39:8 1.87637e-06
19 *12:66 *492:A2 0
*RES
1 *334:ZN *39:8 24.25 
2 *39:8 *492:A2 18.2143 
3 *39:8 *335:A3 15 
*END

*D_NET *40 0.00251322
*CONN
*I *336:A4 I *D AND4_X1
*I *350:A3 I *D AND3_X1
*I *346:A4 I *D AND4_X1
*I *348:A2 I *D NAND2_X1
*I *344:A4 I *D AND4_X1
*I *362:A2 I *D AND2_X1
*I *356:A3 I *D NAND3_X1
*I *335:ZN O *D NOR3_X2
*CAP
1 *336:A4 9.83259e-05
2 *350:A3 4.95866e-05
3 *346:A4 0
4 *348:A2 0
5 *344:A4 5.81212e-05
6 *362:A2 2.43901e-05
7 *356:A3 3.72457e-05
8 *335:ZN 6.70725e-05
9 *40:59 0.000180108
10 *40:50 5.40755e-05
11 *40:41 0.000115618
12 *40:30 0.000175636
13 *40:19 9.28194e-05
14 *40:8 0.00014897
15 *336:A4 *349:A2 0
16 *336:A4 *169:12 4.85224e-05
17 *336:A4 *170:17 0.00017169
18 *336:A4 *282:49 0
19 *344:A4 *344:A2 8.43215e-07
20 *344:A4 *460:A2 1.26998e-05
21 *344:A4 *478:A 0
22 *344:A4 *155:23 2.19213e-05
23 *344:A4 *191:30 0.000111649
24 *350:A3 *349:A1 1.82068e-05
25 *350:A3 *152:33 6.65423e-06
26 *350:A3 *170:17 8.94571e-06
27 *350:A3 *219:8 9.22998e-06
28 *350:A3 *282:49 1.55645e-05
29 *356:A3 *356:A1 1.88327e-05
30 *356:A3 *181:16 1.88327e-05
31 *362:A2 *362:A1 4.96432e-05
32 *362:A2 *155:23 4.96432e-05
33 *40:8 *55:12 1.52083e-06
34 *40:8 *55:34 1.61948e-05
35 *40:8 *168:12 5.89043e-05
36 *40:8 *174:10 0.000195763
37 *40:19 *362:A1 2.8028e-05
38 *40:19 *168:12 3.426e-05
39 *40:19 *174:10 8.83417e-05
40 *40:19 *175:34 2.61175e-06
41 *40:30 *152:35 1.20127e-06
42 *40:30 *168:8 4.12796e-06
43 *40:30 *168:12 1.48912e-05
44 *40:30 *175:34 3.12145e-06
45 *40:41 *152:35 1.072e-05
46 *40:41 *168:8 7.927e-05
47 *40:50 *349:A3 6.73899e-05
48 *40:50 *152:35 2.66554e-06
49 *40:50 *168:8 5.11191e-06
50 *40:59 *349:A1 5.10087e-06
51 *40:59 *349:A3 4.24402e-05
52 *40:59 *282:49 0
53 *335:A3 *40:8 7.80943e-05
54 *336:A3 *336:A4 5.05375e-05
55 *350:A2 *350:A3 2.93842e-06
56 *350:A2 *40:50 2.94455e-05
57 *350:A2 *40:59 2.5697e-05
*RES
1 *335:ZN *40:8 23.1429 
2 *40:8 *356:A3 14.75 
3 *40:8 *40:19 7.03572 
4 *40:19 *362:A2 14.75 
5 *40:19 *40:30 2.96429 
6 *40:30 *344:A4 20.25 
7 *40:30 *40:41 11.7857 
8 *40:41 *348:A2 10 
9 *40:41 *40:50 4.32143 
10 *40:50 *346:A4 10 
11 *40:50 *40:59 4.32143 
12 *40:59 *350:A3 27.0357 
13 *40:59 *336:A4 28.0357 
*END

*D_NET *41 7.04466e-05
*CONN
*I *339:A1 I *D NAND3_X1
*I *338:ZN O *D INV_X1
*CAP
1 *339:A1 3.52233e-05
2 *338:ZN 3.52233e-05
*RES
1 *338:ZN *339:A1 22.2857 
*END

*D_NET *42 0.0011673
*CONN
*I *340:A I *D INV_X1
*I *479:A I *D OAI21_X1
*I *339:ZN O *D NAND3_X1
*CAP
1 *340:A 0
2 *479:A 0.000350682
3 *339:ZN 6.28458e-05
4 *42:6 0.000413528
5 *479:A *294:A3 9.99214e-05
6 *479:A *403:A1 3.19164e-07
7 *479:A *403:A2 2.10852e-05
8 *479:A *458:A1 1.76665e-06
9 *479:A *458:A3 2.83124e-05
10 *479:A *479:B1 8.43215e-07
11 *479:A *486:A3 2.65559e-05
12 *479:A *67:37 0
13 *479:A *71:8 5.99561e-06
14 *479:A *112:22 2.68399e-05
15 *479:A *138:8 1.40406e-05
16 *479:A *206:23 6.38328e-06
17 *479:A *260:17 9.01846e-07
18 *479:A *260:28 2.73217e-05
19 *42:6 *456:B 4.12459e-06
20 *42:6 *486:A2 3.23723e-07
21 *42:6 *486:A3 7.16188e-07
22 *42:6 *137:12 2.52965e-06
23 *42:6 *165:12 3.77093e-05
24 *42:6 *183:10 0
25 *42:6 *260:17 0
26 *384:A2 *479:A 0
27 *388:A1 *479:A 0
28 *456:C2 *42:6 3.45517e-05
29 *9:8 *479:A 0
*RES
1 *339:ZN *42:6 13.75 
2 *42:6 *479:A 48.9643 
3 *42:6 *340:A 5 
*END

*D_NET *43 1.74261e-05
*CONN
*I *344:A1 I *D AND4_X1
*I *342:ZN O *D INV_X1
*CAP
1 *344:A1 8.71307e-06
2 *342:ZN 8.71307e-06
3 *344:A1 *299:A3 0
*RES
1 *342:ZN *344:A1 10.9286 
*END

*D_NET *44 0.000700745
*CONN
*I *344:A3 I *D AND4_X1
*I *478:B2 I *D OAI21_X1
*I *356:A2 I *D NAND3_X1
*I *343:ZN O *D NOR2_X1
*CAP
1 *344:A3 3.03704e-05
2 *478:B2 8.71307e-06
3 *356:A2 1.04924e-05
4 *343:ZN 0
5 *44:12 0.000118144
6 *44:6 0.000129309
7 *344:A3 *155:27 2.09671e-05
8 *344:A3 *247:13 9.11243e-05
9 *356:A2 *219:8 6.50827e-06
10 *356:A2 *282:49 1.045e-05
11 *44:12 *356:A1 0.000156225
12 *44:12 *358:A 2.18289e-05
13 *44:12 *361:A2 1.61174e-05
14 *44:12 *361:A3 1.19839e-05
15 *44:12 *478:B1 6.03285e-06
16 *44:12 *155:27 1.55671e-05
17 *44:12 *245:30 4.4683e-06
18 *44:12 *247:13 4.24423e-05
*RES
1 *343:ZN *44:6 10 
2 *44:6 *44:12 22.0357 
3 *44:12 *356:A2 16.6071 
4 *44:12 *478:B2 5.92857 
5 *44:6 *344:A3 15 
*END

*D_NET *45 0.000307124
*CONN
*I *346:A3 I *D AND4_X1
*I *481:A1 I *D NOR2_X1
*I *345:ZN O *D NOR2_X1
*CAP
1 *346:A3 0
2 *481:A1 4.22917e-05
3 *345:ZN 5.99126e-05
4 *45:12 0.000102204
5 *481:A1 *350:A1 1.43352e-05
6 *481:A1 *481:A2 3.43708e-05
7 *481:A1 *487:A3 0
8 *481:A1 *240:44 5.99561e-06
9 *481:A1 *285:12 0
10 *45:12 *346:A1 1.53657e-05
11 *45:12 *347:A 6.21255e-06
12 *45:12 *349:A3 5.94167e-07
13 *45:12 *168:8 6.44376e-06
14 *45:12 *240:44 1.17749e-05
15 *346:A2 *481:A1 4.45118e-06
16 *350:A2 *481:A1 2.73919e-06
17 *14:76 *481:A1 2.16072e-07
18 *14:80 *481:A1 2.16072e-07
*RES
1 *345:ZN *45:12 22.3929 
2 *45:12 *481:A1 10.6786 
3 *45:12 *346:A3 5 
*END

*D_NET *46 0.000117815
*CONN
*I *349:A2 I *D NOR3_X1
*I *347:ZN O *D INV_X1
*CAP
1 *349:A2 4.20999e-05
2 *347:ZN 4.20999e-05
3 *349:A2 *345:A1 0
4 *349:A2 *349:A1 2.39679e-06
5 *349:A2 *349:A3 7.19036e-06
6 *349:A2 *169:12 1.40335e-05
7 *349:A2 *170:6 0
8 *349:A2 *240:44 9.99492e-06
9 *336:A4 *349:A2 0
*RES
1 *347:ZN *349:A2 15.8571 
*END

*D_NET *47 0.000390979
*CONN
*I *481:A2 I *D NOR2_X1
*I *349:A3 I *D NOR3_X1
*I *348:ZN O *D NAND2_X1
*CAP
1 *481:A2 3.61232e-05
2 *349:A3 3.03573e-05
3 *348:ZN 6.64805e-05
4 *349:A3 *168:8 9.25896e-05
5 *349:A3 *240:44 2.52965e-06
6 *481:A2 *285:12 0
7 *349:A2 *349:A3 7.19036e-06
8 *481:A1 *481:A2 3.43708e-05
9 *14:80 *481:A2 1.09132e-05
10 *40:50 *349:A3 6.73899e-05
11 *40:59 *349:A3 4.24402e-05
12 *45:12 *349:A3 5.94167e-07
*RES
1 *348:ZN *349:A3 26.4286 
2 *348:ZN *481:A2 14.8571 
*END

*D_NET *48 0.00118639
*CONN
*I *375:A3 I *D NOR3_X1
*I *374:A4 I *D NOR4_X2
*I *352:A3 I *D OR3_X1
*I *351:ZN O *D NAND3_X1
*CAP
1 *375:A3 3.84536e-05
2 *374:A4 1.65992e-05
3 *352:A3 8.15016e-06
4 *351:ZN 0.00030173
5 *48:25 0.000102639
6 *48:14 0.000357466
7 *374:A4 *375:A1 1.52083e-06
8 *374:A4 *179:23 3.602e-06
9 *375:A3 *375:A1 1.80327e-05
10 *375:A3 *64:12 1.26998e-05
11 *48:14 *382:A 3.09411e-06
12 *48:14 *459:B 0
13 *48:14 *459:C1 7.87077e-06
14 *48:14 *459:C2 5.99488e-05
15 *48:14 *49:6 3.88456e-06
16 *48:14 *60:23 0
17 *48:25 *355:A1 4.87096e-06
18 *48:25 *64:12 1.33399e-06
19 *48:25 *282:43 7.38084e-05
20 *297:A1 *48:14 9.31047e-06
21 *297:A1 *48:25 8.43215e-07
22 *297:A4 *48:14 1.39839e-06
23 *367:A1 *48:14 4.88878e-05
24 *375:A2 *375:A3 1.26998e-05
25 *8:18 *352:A3 1.76665e-06
26 *8:18 *48:25 9.31696e-05
27 *9:25 *48:14 2.61469e-06
28 *12:10 *48:14 0
*RES
1 *351:ZN *48:14 40.6429 
2 *48:14 *352:A3 5.92857 
3 *48:14 *48:25 14.25 
4 *48:25 *374:A4 11.6071 
5 *48:25 *375:A3 14.2143 
*END

*D_NET *49 0.00120309
*CONN
*I *355:A1 I *D NOR2_X1
*I *373:A1 I *D NOR2_X1
*I *459:C1 I *D OAI211_X1
*I *352:ZN O *D OR3_X1
*CAP
1 *355:A1 0.000156525
2 *373:A1 0
3 *459:C1 8.58042e-05
4 *352:ZN 7.08499e-06
5 *49:14 0.000108195
6 *49:6 0.000186001
7 *355:A1 *293:A4 9.57492e-07
8 *355:A1 *353:A1 2.85072e-05
9 *355:A1 *353:A3 4.32144e-07
10 *355:A1 *354:A2 1.67009e-05
11 *355:A1 *372:A1 4.92988e-06
12 *355:A1 *375:A1 7.30645e-06
13 *355:A1 *64:12 0.000124073
14 *355:A1 *247:26 0
15 *355:A1 *282:27 1.13641e-05
16 *355:A1 *282:43 0.000211366
17 *459:C1 *459:A 6.34128e-05
18 *459:C1 *459:B 1.68643e-06
19 *459:C1 *459:C2 5.94164e-05
20 *459:C1 *64:12 2.39679e-06
21 *459:C1 *218:8 0
22 *49:14 *64:12 5.05929e-06
23 *49:14 *137:12 4.24402e-05
24 *49:14 *282:47 4.18985e-05
25 *375:A2 *459:C1 4.12459e-06
26 *375:A2 *49:14 1.67775e-05
27 *48:14 *459:C1 7.87077e-06
28 *48:14 *49:6 3.88456e-06
29 *48:25 *355:A1 4.87096e-06
*RES
1 *352:ZN *49:6 5.92857 
2 *49:6 *49:14 14.0357 
3 *49:14 *459:C1 26.8929 
4 *49:14 *373:A1 5 
5 *49:6 *355:A1 31.2857 
*END

*D_NET *50 0.000189355
*CONN
*I *354:A2 I *D NAND2_X1
*I *353:ZN O *D NOR3_X1
*CAP
1 *354:A2 4.93339e-05
2 *353:ZN 4.93339e-05
3 *354:A2 *293:A4 1.04947e-05
4 *354:A2 *353:A1 1.80259e-05
5 *354:A2 *355:A2 2.31498e-05
6 *354:A2 *246:21 1.39047e-05
7 *354:A2 *249:15 8.41155e-06
8 *355:A1 *354:A2 1.67009e-05
*RES
1 *353:ZN *354:A2 27.3929 
*END

*D_NET *51 8.07872e-05
*CONN
*I *355:A2 I *D NOR2_X1
*I *354:ZN O *D NAND2_X1
*CAP
1 *355:A2 1.69059e-05
2 *354:ZN 1.69059e-05
3 *355:A2 *293:A4 1.26998e-05
4 *355:A2 *249:15 1.11258e-05
5 *354:A2 *355:A2 2.31498e-05
*RES
1 *354:ZN *355:A2 22.8571 
*END

*D_NET *52 0.00247498
*CONN
*I *357:A I *D INV_X1
*I *461:A I *D OAI211_X1
*I *356:ZN O *D NAND3_X1
*CAP
1 *357:A 0
2 *461:A 5.141e-05
3 *356:ZN 0.000270976
4 *52:10 0.000160264
5 *52:8 0.00037983
6 *461:A *457:B 1.68643e-06
7 *461:A *461:B 6.15485e-05
8 *461:A *466:A1 4.57782e-05
9 *461:A *186:10 0
10 *461:A *215:8 9.44209e-05
11 *461:A *215:14 6.48216e-07
12 *52:8 *130:10 2.6828e-05
13 *52:8 *173:16 0.000223008
14 *52:8 *181:16 6.81701e-06
15 *52:8 *255:13 0
16 *52:8 *255:19 0
17 *52:8 *265:15 1.40706e-05
18 *52:10 *466:A1 1.97074e-05
19 *52:10 *156:12 0.00052843
20 *52:10 *215:8 0.000589558
*RES
1 *356:ZN *52:8 44.25 
2 *52:8 *52:10 31.4643 
3 *52:10 *461:A 19.75 
4 *52:10 *357:A 10 
*END

*D_NET *53 0.0001034
*CONN
*I *361:A2 I *D NOR3_X1
*I *358:ZN O *D INV_X1
*CAP
1 *361:A2 3.14861e-05
2 *358:ZN 3.14861e-05
3 *361:A2 *361:A1 8.04708e-06
4 *361:A2 *361:A3 2.39679e-06
5 *361:A2 *245:30 1.38665e-05
6 *44:12 *361:A2 1.61174e-05
*RES
1 *358:ZN *361:A2 14.6786 
*END

*D_NET *54 0.000571597
*CONN
*I *360:A1 I *D NAND2_X1
*I *492:A1 I *D NAND2_X1
*I *501:A I *D INV_X1
*I *498:C1 I *D AOI221_X1
*I *359:ZN O *D NOR2_X1
*CAP
1 *360:A1 2.6653e-05
2 *492:A1 1.01322e-05
3 *501:A 0
4 *498:C1 6.40734e-05
5 *359:ZN 0
6 *54:26 5.57119e-05
7 *54:8 7.95031e-05
8 *54:6 3.43564e-05
9 *360:A1 *219:8 4.92317e-06
10 *360:A1 *282:49 5.37352e-05
11 *498:C1 *282:49 7.58428e-05
12 *54:8 *282:49 1.42838e-05
13 *54:26 *219:8 7.82257e-06
14 *54:26 *282:49 1.91127e-05
15 *360:A2 *360:A1 3.02351e-05
16 *492:A2 *360:A1 0
17 *7:41 *498:C1 7.58428e-05
18 *7:41 *54:8 1.24005e-05
19 *7:41 *54:26 4.43868e-06
20 *12:66 *360:A1 2.52965e-06
*RES
1 *359:ZN *54:6 10 
2 *54:6 *54:8 2.28572 
3 *54:8 *498:C1 21.1071 
4 *54:8 *501:A 10 
5 *54:6 *54:26 2.96429 
6 *54:26 *492:A1 10.9286 
7 *54:26 *360:A1 14.7143 
*END

*D_NET *55 0.00145752
*CONN
*I *478:B1 I *D OAI21_X1
*I *361:A3 I *D NOR3_X1
*I *489:A2 I *D NOR2_X1
*I *500:A2 I *D NAND2_X1
*I *360:ZN O *D NAND2_X1
*CAP
1 *478:B1 3.85969e-05
2 *361:A3 1.03428e-05
3 *489:A2 6.61462e-06
4 *500:A2 5.92349e-05
5 *360:ZN 1.92554e-05
6 *55:34 0.000142125
7 *55:12 0.000225775
8 *55:8 0.000272366
9 *478:B1 *478:A 1.54598e-05
10 *478:B1 *174:10 2.96955e-05
11 *478:B1 *175:34 5.39412e-06
12 *500:A2 *491:A2 4.24381e-05
13 *500:A2 *497:A2 3.69346e-06
14 *500:A2 *66:6 1.03315e-06
15 *500:A2 *66:8 4.12459e-06
16 *500:A2 *66:10 8.43215e-07
17 *500:A2 *94:10 6.63045e-05
18 *500:A2 *152:39 2.90397e-05
19 *500:A2 *183:21 7.16887e-06
20 *500:A2 *186:12 7.35445e-06
21 *55:12 *491:A2 5.11191e-06
22 *55:12 *497:A2 1.12238e-05
23 *55:12 *152:35 5.99122e-05
24 *55:12 *183:21 1.02373e-05
25 *55:34 *152:35 2.4092e-05
26 *55:34 *174:10 0.000246552
27 *55:34 *175:34 3.31547e-05
28 *314:A1 *55:12 2.54645e-06
29 *327:A2 *489:A2 4.32144e-07
30 *327:A2 *55:12 2.93269e-06
31 *335:A3 *55:12 1.61002e-06
32 *361:A2 *361:A3 2.39679e-06
33 *489:A1 *489:A2 8.43215e-07
34 *492:A2 *55:8 0
35 *492:A2 *55:12 1.25431e-05
36 *498:C2 *489:A2 7.19036e-06
37 *7:8 *55:12 4.30934e-06
38 *12:66 *55:8 9.83877e-06
39 *40:8 *55:12 1.52083e-06
40 *40:8 *55:34 1.61948e-05
41 *44:12 *361:A3 1.19839e-05
42 *44:12 *478:B1 6.03285e-06
*RES
1 *360:ZN *55:8 12.25 
2 *55:8 *55:12 20 
3 *55:12 *500:A2 19.25 
4 *55:12 *489:A2 10.75 
5 *55:8 *55:34 15.8571 
6 *55:34 *361:A3 11.25 
7 *55:34 *478:B1 15.3571 
*END

*D_NET *56 0.0012173
*CONN
*I *384:A1 I *D NOR3_X1
*I *365:A1 I *D NAND2_X1
*I *363:ZN O *D INV_X1
*CAP
1 *384:A1 0.000183503
2 *365:A1 4.6889e-05
3 *363:ZN 1.68264e-05
4 *56:8 0.000247219
5 *365:A1 *365:A2 7.9624e-06
6 *365:A1 *381:A1 3.65322e-06
7 *365:A1 *383:A2 9.65418e-06
8 *365:A1 *250:17 7.59759e-06
9 *384:A1 *383:A1 6.50581e-06
10 *384:A1 *485:A2 0.00010583
11 *384:A1 *498:B2 2.49497e-05
12 *384:A1 *60:51 0.000332197
13 *384:A1 *137:12 2.07848e-05
14 *384:A1 *177:10 9.54458e-06
15 *384:A1 *281:9 1.80708e-05
16 *56:8 *383:A1 4.12911e-06
17 *56:8 *182:10 6.32202e-06
18 *56:8 *281:9 6.44191e-06
19 *7:41 *384:A1 6.32461e-06
20 *7:43 *384:A1 7.84208e-05
21 *7:45 *384:A1 4.26134e-05
22 *7:51 *384:A1 3.18563e-05
*RES
1 *363:ZN *56:8 12.2857 
2 *56:8 *365:A1 16 
3 *56:8 *384:A1 42.1429 
*END

*D_NET *57 0.000247273
*CONN
*I *383:A2 I *D NOR4_X2
*I *365:A2 I *D NAND2_X1
*I *364:ZN O *D INV_X1
*CAP
1 *383:A2 5.4032e-05
2 *365:A2 1.10721e-05
3 *364:ZN 2.61406e-05
4 *57:10 9.12446e-05
5 *365:A2 *296:A1 7.9624e-06
6 *383:A2 *296:A1 1.85529e-05
7 *383:A2 *383:A1 3.23723e-07
8 *383:A2 *250:17 0
9 *383:A2 *253:17 5.4812e-06
10 *57:10 *296:A1 4.177e-06
11 *57:10 *281:9 1.06702e-05
12 *365:A1 *365:A2 7.9624e-06
13 *365:A1 *383:A2 9.65418e-06
*RES
1 *364:ZN *57:10 17.9643 
2 *57:10 *365:A2 6.75 
3 *57:10 *383:A2 11.7857 
*END

*D_NET *58 0.000391918
*CONN
*I *381:A4 I *D OR4_X2
*I *366:A2 I *D NOR2_X1
*I *365:ZN O *D NAND2_X1
*CAP
1 *381:A4 7.07183e-05
2 *366:A2 7.39766e-05
3 *365:ZN 0
4 *58:4 0.000144695
5 *366:A2 *296:A2 0
6 *366:A2 *296:A3 2.16072e-07
7 *366:A2 *381:A1 4.29713e-06
8 *366:A2 *218:16 1.11799e-05
9 *366:A2 *250:17 2.87703e-06
10 *366:A2 *251:13 2.61408e-05
11 *381:A4 grant[47] 3.23723e-07
12 *381:A4 *381:A1 1.7672e-05
13 *381:A4 *381:A3 2.39679e-06
14 *381:A4 *180:8 7.19036e-06
15 *381:A4 *218:16 0
16 *381:A4 *251:11 0
17 *381:A4 *281:9 0
18 *7:64 *381:A4 3.02351e-05
*RES
1 *365:ZN *58:4 5 
2 *58:4 *366:A2 14.6786 
3 *58:4 *381:A4 23.1786 
*END

*D_NET *59 0.000169438
*CONN
*I *369:A2 I *D AND3_X1
*I *366:ZN O *D NOR2_X1
*CAP
1 *369:A2 4.81537e-05
2 *366:ZN 4.81537e-05
3 *369:A2 *296:A3 5.1802e-06
4 *369:A2 *192:18 6.46429e-06
5 *369:A2 *250:21 2.20082e-05
6 *369:A2 *261:9 9.24246e-06
7 *11:8 *369:A2 3.02351e-05
*RES
1 *366:ZN *369:A2 26.4643 
*END

*D_NET *60 0.00265758
*CONN
*I *498:B2 I *D AOI221_X1
*I *384:A3 I *D NOR3_X1
*I *383:A4 I *D NOR4_X2
*I *381:A3 I *D OR4_X2
*I *368:A2 I *D NOR3_X1
*I *367:ZN O *D NAND2_X1
*CAP
1 *498:B2 0.000137422
2 *384:A3 8.20652e-06
3 *383:A4 3.09745e-05
4 *381:A3 5.24291e-06
5 *368:A2 4.73646e-05
6 *367:ZN 2.48017e-05
7 *60:51 0.00026274
8 *60:29 9.4405e-05
9 *60:23 0.000294121
10 *60:8 0.000190988
11 *368:A2 *172:14 2.25089e-06
12 *381:A3 *180:8 1.68643e-06
13 *383:A4 *180:8 1.93961e-05
14 *384:A3 *262:13 6.48216e-07
15 *498:B2 *486:A3 2.05644e-05
16 *498:B2 *137:12 0.00015439
17 *498:B2 *282:47 4.33419e-06
18 *498:B2 *282:49 0.000146898
19 *60:8 *261:9 1.50276e-05
20 *60:29 *69:8 2.15805e-05
21 *60:29 *281:9 2.14464e-05
22 *60:51 grant[29] 0
23 *60:51 *485:A1 9.62051e-07
24 *60:51 *137:12 0.000333782
25 *297:A1 *368:A2 2.9171e-06
26 *297:A1 *60:8 7.14424e-06
27 *297:A1 *60:23 4.10126e-05
28 *297:A1 *60:51 8.46545e-06
29 *368:A1 *368:A2 1.67775e-05
30 *368:A1 *60:23 0
31 *368:A3 *368:A2 1.19839e-05
32 *374:A3 *60:51 1.68643e-06
33 *381:A4 *381:A3 2.39679e-06
34 *383:A3 *381:A3 7.72792e-06
35 *383:A3 *383:A4 3.89683e-05
36 *384:A1 *498:B2 2.49497e-05
37 *384:A1 *60:51 0.000332197
38 *384:A2 *384:A3 2.39679e-06
39 *7:41 *498:B2 0.000107092
40 *7:51 *60:51 0
41 *7:64 *60:29 9.16134e-05
42 *7:84 *60:51 4.9678e-06
43 *11:23 *368:A2 7.76093e-05
44 *11:23 *60:8 3.84423e-05
45 *48:14 *60:23 0
*RES
1 *367:ZN *60:8 14.3214 
2 *60:8 *368:A2 16.0714 
3 *60:8 *60:23 18.75 
4 *60:23 *60:29 18.3929 
5 *60:29 *381:A3 5.75 
6 *60:29 *383:A4 10.1786 
7 *60:23 *60:51 28.6429 
8 *60:51 *384:A3 10.75 
9 *60:51 *498:B2 35 
*END

*D_NET *61 0.00178921
*CONN
*I *496:B I *D AOI211_X1
*I *369:A3 I *D AND3_X1
*I *368:ZN O *D NOR3_X1
*CAP
1 *496:B 0
2 *369:A3 5.43619e-05
3 *368:ZN 0
4 *61:17 0.000325194
5 *61:6 0.000379556
6 *369:A3 *261:9 0.000129284
7 *61:17 *294:A3 0
8 *61:17 *385:A 2.06738e-05
9 *61:17 *386:A1 5.60956e-06
10 *61:17 *401:A2 9.38771e-05
11 *61:17 *495:A1 4.88119e-05
12 *61:17 *495:A2 5.33077e-05
13 *61:17 *496:C1 0
14 *61:17 *67:10 0
15 *61:17 *67:12 0
16 *61:17 *67:16 0
17 *61:17 *67:22 5.2474e-05
18 *61:17 *70:8 3.02351e-05
19 *61:17 *154:8 4.76436e-07
20 *61:17 *190:10 3.57322e-07
21 *61:17 *191:10 2.16819e-05
22 *61:17 *226:35 9.00517e-05
23 *61:17 *260:45 0
24 *61:17 *261:9 0.000371622
25 *61:17 *261:24 0.000111637
26 *297:A4 *61:17 0
*RES
1 *368:ZN *61:6 10 
2 *61:6 *369:A3 17.0357 
3 *61:6 *61:17 48.4286 
4 *61:17 *496:B 10 
*END

*D_NET *62 0.000285542
*CONN
*I *372:A1 I *D NAND3_X1
*I *375:A1 I *D NOR3_X1
*I *370:ZN O *D INV_X1
*CAP
1 *372:A1 8.63696e-06
2 *375:A1 5.70462e-05
3 *370:ZN 2.65757e-05
4 *62:10 9.22589e-05
5 *372:A1 *372:A3 8.43215e-07
6 *372:A1 *374:A1 0
7 *375:A1 *374:A1 0
8 *375:A1 *179:23 1.38957e-05
9 *375:A1 *282:43 2.35379e-05
10 *62:10 *374:A1 1.91498e-06
11 *62:10 *247:26 0
12 *355:A1 *372:A1 4.92988e-06
13 *355:A1 *375:A1 7.30645e-06
14 *374:A4 *375:A1 1.52083e-06
15 *375:A3 *375:A1 1.80327e-05
16 *8:18 *375:A1 2.90423e-05
*RES
1 *370:ZN *62:10 8.28572 
2 *62:10 *375:A1 23.0714 
3 *62:10 *372:A1 6.25 
*END

*D_NET *63 0.000405731
*CONN
*I *372:A2 I *D NAND3_X1
*I *374:A2 I *D NOR4_X2
*I *371:ZN O *D INV_X1
*CAP
1 *372:A2 4.57791e-05
2 *374:A2 3.7653e-05
3 *371:ZN 1.64508e-05
4 *63:6 9.98828e-05
5 *372:A2 *179:23 5.14625e-07
6 *372:A2 *241:9 1.4762e-05
7 *372:A2 *247:13 1.72426e-05
8 *374:A2 *374:A1 4.73284e-06
9 *374:A2 *485:A1 8.26038e-06
10 *374:A2 *178:23 4.05911e-05
11 *63:6 *178:23 3.78376e-05
12 *8:18 *372:A2 1.77197e-05
13 *8:18 *374:A2 2.42461e-05
14 *8:18 *63:6 4.00586e-05
*RES
1 *371:ZN *63:6 8.75 
2 *63:6 *374:A2 10.8571 
3 *63:6 *372:A2 20.6786 
*END

*D_NET *64 0.00064093
*CONN
*I *373:A2 I *D NOR2_X1
*I *459:C2 I *D OAI211_X1
*I *372:ZN O *D NAND3_X1
*CAP
1 *373:A2 0
2 *459:C2 4.29638e-05
3 *372:ZN 9.84505e-05
4 *64:12 0.000141414
5 *459:C2 *459:A 4.24402e-05
6 *459:C2 *181:10 8.58925e-06
7 *64:12 *456:A 2.55787e-06
8 *64:12 *247:13 5.56936e-06
9 *64:12 *282:43 1.47445e-05
10 *355:A1 *64:12 0.000124073
11 *375:A2 *64:12 1.92727e-05
12 *375:A3 *64:12 1.26998e-05
13 *459:C1 *459:C2 5.94164e-05
14 *459:C1 *64:12 2.39679e-06
15 *48:14 *459:C2 5.99488e-05
16 *48:25 *64:12 1.33399e-06
17 *49:14 *64:12 5.05929e-06
*RES
1 *372:ZN *64:12 29.8571 
2 *64:12 *459:C2 23.0357 
3 *64:12 *373:A2 5 
*END

*D_NET *65 0.000255774
*CONN
*I *379:A3 I *D AND4_X1
*I *376:ZN O *D NOR3_X1
*CAP
1 *379:A3 5.39393e-05
2 *376:ZN 5.39393e-05
3 *379:A3 *295:A1 2.47688e-05
4 *379:A3 *295:A4 2.39679e-06
5 *379:A3 *376:A3 3.93453e-05
6 *379:A3 *162:8 3.0359e-06
7 *379:A3 *256:19 7.83485e-05
*RES
1 *376:ZN *379:A3 28.0714 
*END

*D_NET *66 0.00208257
*CONN
*I *498:B1 I *D AOI221_X1
*I *500:A1 I *D NAND2_X1
*I *458:A2 I *D NAND4_X1
*I *378:A1 I *D AND2_X1
*I *377:ZN O *D AND4_X1
*CAP
1 *498:B1 2.10431e-05
2 *500:A1 0
3 *458:A2 5.5562e-05
4 *378:A1 7.17197e-06
5 *377:ZN 0.000176206
6 *66:10 0.000152595
7 *66:8 9.67072e-05
8 *66:6 0.000204096
9 *458:A2 *459:B 1.11258e-05
10 *458:A2 *115:10 0
11 *458:A2 *138:10 0.000245726
12 *498:B1 *498:A 1.32323e-05
13 *66:6 *491:A3 0.000363586
14 *66:6 *497:A2 7.9624e-06
15 *66:6 *498:A 9.01846e-07
16 *66:6 *152:39 0.000394671
17 *66:10 *499:A 0
18 *66:10 *186:12 0
19 *327:A2 *66:10 0
20 *498:C2 *66:6 3.23723e-07
21 *500:A2 *66:6 1.03315e-06
22 *500:A2 *66:8 4.12459e-06
23 *500:A2 *66:10 8.43215e-07
24 *12:21 *458:A2 0.00028392
25 *12:32 *378:A1 7.19036e-06
26 *12:32 *66:10 3.45492e-05
*RES
1 *377:ZN *66:6 42.25 
2 *66:6 *66:8 1.25 
3 *66:8 *66:10 9.75 
4 *66:10 *378:A1 5.75 
5 *66:10 *458:A2 30.1786 
6 *66:8 *500:A1 5 
7 *66:6 *498:B1 7.85714 
*END

*D_NET *67 0.00282128
*CONN
*I *496:C1 I *D AOI211_X1
*I *387:A4 I *D AND4_X1
*I *400:A3 I *D AND3_X1
*I *484:A I *D OAI21_X1
*I *388:A2 I *D NAND2_X1
*I *403:A2 I *D NAND2_X1
*I *379:A4 I *D AND4_X1
*I *401:A2 I *D NAND2_X1
*I *378:ZN O *D AND2_X1
*CAP
1 *496:C1 6.44671e-05
2 *387:A4 8.3116e-05
3 *400:A3 0
4 *484:A 0
5 *388:A2 0
6 *403:A2 9.3539e-05
7 *379:A4 9.2093e-05
8 *401:A2 3.70782e-05
9 *378:ZN 3.61481e-05
10 *67:39 0.000185632
11 *67:37 0.000126793
12 *67:22 0.000215707
13 *67:16 0.000133831
14 *67:12 0.0001109
15 *67:10 0.000146399
16 *67:8 0.000134992
17 *379:A4 *73:10 0
18 *379:A4 *223:21 7.72792e-06
19 *379:A4 *223:27 0.000134194
20 *387:A4 *385:A 3.19164e-07
21 *387:A4 *387:A1 5.44343e-05
22 *387:A4 *387:A3 6.18081e-05
23 *387:A4 *71:27 4.81381e-05
24 *387:A4 *186:10 0
25 *387:A4 *186:12 9.57492e-07
26 *387:A4 *191:10 1.23214e-06
27 *387:A4 *259:17 1.045e-05
28 *387:A4 *259:19 1.88334e-06
29 *401:A2 *401:A1 2.39679e-06
30 *401:A2 *191:10 1.045e-05
31 *401:A2 *223:21 9.57492e-07
32 *403:A2 *403:A1 1.21774e-06
33 *403:A2 *131:8 2.00057e-05
34 *403:A2 *215:16 0
35 *403:A2 *223:27 0.000136931
36 *496:C1 *496:A 8.43215e-07
37 *496:C1 *497:A3 8.56027e-06
38 *496:C1 *71:27 0
39 *496:C1 *156:20 0
40 *496:C1 *218:8 0
41 *67:8 *497:A2 0
42 *67:8 *156:22 0
43 *67:8 *186:12 0
44 *67:10 *495:A1 0
45 *67:10 *71:27 1.66988e-05
46 *67:10 *218:8 0
47 *67:12 *70:8 0
48 *67:12 *71:27 8.14241e-05
49 *67:12 *190:10 5.10087e-06
50 *67:16 *294:A3 1.48912e-05
51 *67:16 *71:12 0.000166395
52 *67:16 *71:27 1.27467e-05
53 *67:16 *190:10 5.08992e-06
54 *67:16 *218:8 0
55 *67:16 *260:45 3.69408e-05
56 *67:22 *294:A2 1.68643e-06
57 *67:22 *386:A1 1.26998e-05
58 *67:22 *484:B1 4.5563e-05
59 *67:22 *71:8 9.46211e-06
60 *67:22 *191:10 1.60168e-05
61 *67:22 *261:26 7.19036e-06
62 *67:37 *294:A2 2.42644e-05
63 *67:37 *403:A1 9.44145e-05
64 *67:37 *262:32 5.65769e-05
65 *379:A2 *379:A4 2.15486e-05
66 *388:A1 *67:37 1.71452e-05
67 *479:A *403:A2 2.10852e-05
68 *479:A *67:37 0
69 *9:8 *67:37 4.47825e-05
70 *9:19 *379:A4 0
71 *9:19 *403:A2 0
72 *61:17 *401:A2 9.38771e-05
73 *61:17 *496:C1 0
74 *61:17 *67:10 0
75 *61:17 *67:12 0
76 *61:17 *67:16 0
77 *61:17 *67:22 5.2474e-05
*RES
1 *378:ZN *67:8 13.75 
2 *67:8 *67:10 3.64286 
3 *67:10 *67:12 4.32143 
4 *67:12 *67:16 16.7857 
5 *67:16 *67:22 13.2143 
6 *67:22 *401:A2 15.75 
7 *67:22 *67:37 24.75 
8 *67:37 *67:39 5 
9 *67:39 *379:A4 22.7857 
10 *67:39 *403:A2 22.4643 
11 *67:37 *388:A2 5 
12 *67:16 *484:A 5 
13 *67:12 *400:A3 10 
14 *67:10 *387:A4 32.1071 
15 *67:8 *496:C1 17.0357 
*END

*D_NET *68 0.000176971
*CONN
*I *381:A1 I *D OR4_X2
*I *380:ZN O *D INV_X1
*CAP
1 *381:A1 4.52924e-05
2 *380:ZN 4.52924e-05
3 *381:A1 grant[47] 7.72537e-06
4 *381:A1 *296:A1 0
5 *381:A1 *250:17 4.00561e-05
6 *381:A1 *281:9 5.25718e-06
7 *365:A1 *381:A1 3.65322e-06
8 *366:A2 *381:A1 4.29713e-06
9 *381:A4 *381:A1 1.7672e-05
10 *383:A3 *381:A1 7.72537e-06
*RES
1 *380:ZN *381:A1 26.7857 
*END

*D_NET *69 0.000502156
*CONN
*I *459:A I *D OAI211_X1
*I *382:A I *D INV_X1
*I *381:ZN O *D OR4_X2
*CAP
1 *459:A 5.08077e-05
2 *382:A 5.56901e-06
3 *381:ZN 9.09074e-05
4 *69:8 0.000147284
5 *459:A *459:B 7.72792e-06
6 *459:A *181:10 1.22778e-05
7 *459:A *281:9 0
8 *69:8 *281:9 0
9 *297:A1 *382:A 3.09411e-06
10 *459:C1 *459:A 6.34128e-05
11 *459:C2 *459:A 4.24402e-05
12 *7:64 *69:8 5.39607e-05
13 *12:10 *459:A 0
14 *48:14 *382:A 3.09411e-06
15 *60:29 *69:8 2.15805e-05
*RES
1 *381:ZN *69:8 19.75 
2 *69:8 *382:A 10.75 
3 *69:8 *459:A 17.1071 
*END

*D_NET *70 0.000345206
*CONN
*I *495:A1 I *D NAND3_X1
*I *387:A1 I *D AND4_X1
*I *385:ZN O *D INV_X1
*CAP
1 *495:A1 3.27108e-05
2 *387:A1 3.82872e-05
3 *385:ZN 1.08127e-05
4 *70:8 8.18107e-05
5 *387:A1 *385:A 1.40196e-06
6 *387:A1 *387:A3 4.31185e-06
7 *387:A1 *495:A2 3.38333e-05
8 *387:A1 *186:10 4.47285e-06
9 *495:A1 *495:A2 2.39679e-06
10 *495:A1 *71:27 1.68643e-06
11 *387:A4 *387:A1 5.44343e-05
12 *61:17 *495:A1 4.88119e-05
13 *61:17 *70:8 3.02351e-05
14 *67:10 *495:A1 0
15 *67:12 *70:8 0
*RES
1 *385:ZN *70:8 11.6071 
2 *70:8 *387:A1 16.25 
3 *70:8 *495:A1 13.7143 
*END

*D_NET *71 0.00113566
*CONN
*I *458:A3 I *D NAND4_X1
*I *495:A3 I *D NAND3_X1
*I *387:A3 I *D AND4_X1
*I *400:A2 I *D AND3_X1
*I *386:ZN O *D NOR2_X1
*CAP
1 *458:A3 4.804e-05
2 *495:A3 0
3 *387:A3 4.17474e-05
4 *400:A2 8.20652e-06
5 *386:ZN 6.16654e-05
6 *71:27 0.000120041
7 *71:12 0.000156905
8 *71:8 0.00018011
9 *387:A3 *495:A2 7.19036e-06
10 *400:A2 *400:A1 2.39679e-06
11 *400:A2 *186:12 6.48216e-07
12 *458:A3 *486:A3 7.78623e-06
13 *71:8 *294:A2 0
14 *71:8 *294:A3 5.65794e-05
15 *71:8 *386:A1 4.9678e-06
16 *71:12 *218:8 0
17 *71:27 *495:A2 2.39679e-06
18 *71:27 *218:8 0
19 *387:A1 *387:A3 4.31185e-06
20 *387:A4 *387:A3 6.18081e-05
21 *387:A4 *71:27 4.81381e-05
22 *479:A *458:A3 2.83124e-05
23 *479:A *71:8 5.99561e-06
24 *495:A1 *71:27 1.68643e-06
25 *496:C1 *71:27 0
26 *67:10 *71:27 1.66988e-05
27 *67:12 *71:27 8.14241e-05
28 *67:16 *71:12 0.000166395
29 *67:16 *71:27 1.27467e-05
30 *67:22 *71:8 9.46211e-06
*RES
1 *386:ZN *71:8 13.3571 
2 *71:8 *71:12 14.0714 
3 *71:12 *400:A2 10.75 
4 *71:12 *71:27 15.9286 
5 *71:27 *387:A3 10.75 
6 *71:27 *495:A3 5 
7 *71:8 *458:A3 11.4286 
*END

*D_NET *72 0.00127285
*CONN
*I *461:C2 I *D OAI211_X1
*I *457:C2 I *D OAI211_X1
*I *391:A1 I *D NOR2_X1
*I *395:A2 I *D NOR2_X1
*I *479:B1 I *D OAI21_X1
*I *393:A3 I *D NOR3_X1
*I *388:ZN O *D NAND2_X1
*CAP
1 *461:C2 4.17685e-05
2 *457:C2 0
3 *391:A1 2.00153e-05
4 *395:A2 3.1446e-05
5 *479:B1 7.11994e-05
6 *393:A3 4.55592e-05
7 *388:ZN 5.46662e-05
8 *72:62 7.53685e-05
9 *72:42 5.14612e-05
10 *72:40 6.73428e-05
11 *72:23 0.000132595
12 *72:8 0.000127879
13 *391:A1 *461:C1 1.21774e-06
14 *391:A1 *74:12 5.52959e-06
15 *393:A3 *389:A1 2.52965e-06
16 *393:A3 *393:A1 2.52965e-06
17 *393:A3 *73:10 4.67596e-06
18 *395:A2 *394:A 0
19 *395:A2 *457:C1 0
20 *461:C2 *457:B 0
21 *461:C2 *457:C1 1.21774e-06
22 *461:C2 *461:C1 0
23 *461:C2 *466:A1 5.44368e-05
24 *461:C2 *186:10 6.38784e-06
25 *479:B1 *479:B2 5.94113e-05
26 *72:8 *390:A1 7.19036e-06
27 *72:8 *479:B2 3.51536e-06
28 *72:8 *73:10 0
29 *72:23 *479:B2 5.36441e-07
30 *72:23 *74:12 2.41998e-05
31 *72:23 *162:8 1.61429e-06
32 *72:23 *222:17 7.6038e-05
33 *72:40 *74:12 5.23318e-05
34 *72:40 *222:17 0.000155394
35 *72:40 *255:21 1.34851e-06
36 *72:62 *457:C1 1.04006e-05
37 *72:62 *222:17 7.772e-05
38 *72:62 *255:21 4.48425e-06
39 *479:A *479:B1 8.43215e-07
*RES
1 *388:ZN *72:8 11.0357 
2 *72:8 *393:A3 10 
3 *72:8 *72:23 10.2143 
4 *72:23 *479:B1 19.8571 
5 *72:23 *72:40 8.39286 
6 *72:40 *72:42 5 
7 *72:42 *395:A2 7.75 
8 *72:42 *391:A1 7.25 
9 *72:40 *72:62 11.5714 
10 *72:62 *457:C2 5 
11 *72:62 *461:C2 10.75 
*END

*D_NET *73 0.000427496
*CONN
*I *479:B2 I *D OAI21_X1
*I *390:A2 I *D NAND2_X1
*I *389:ZN O *D NOR2_X1
*CAP
1 *479:B2 7.02092e-05
2 *390:A2 0
3 *389:ZN 4.8621e-05
4 *73:10 0.00011883
5 *479:B2 *390:A1 6.48216e-07
6 *479:B2 *74:12 1.47153e-05
7 *479:B2 *162:8 4.76429e-07
8 *479:B2 *255:21 8.73645e-06
9 *479:B2 *256:17 9.91073e-06
10 *479:B2 *256:19 2.80805e-05
11 *73:10 *162:8 2.90224e-06
12 *73:10 *256:19 5.62265e-05
13 *379:A4 *73:10 0
14 *393:A3 *73:10 4.67596e-06
15 *479:B1 *479:B2 5.94113e-05
16 *72:8 *479:B2 3.51536e-06
17 *72:8 *73:10 0
18 *72:23 *479:B2 5.36441e-07
*RES
1 *389:ZN *73:10 16.2143 
2 *73:10 *390:A2 10 
3 *73:10 *479:B2 19.3929 
*END

*D_NET *74 0.000636654
*CONN
*I *461:C1 I *D OAI211_X1
*I *391:A2 I *D NOR2_X1
*I *390:ZN O *D NAND2_X1
*CAP
1 *461:C1 8.80681e-05
2 *391:A2 0
3 *390:ZN 7.06473e-05
4 *74:12 0.000158715
5 *461:C1 *131:8 4.93851e-05
6 *461:C1 *186:10 6.38784e-06
7 *461:C1 *223:27 0.000131824
8 *74:12 *255:21 3.3632e-05
9 *391:A1 *461:C1 1.21774e-06
10 *391:A1 *74:12 5.52959e-06
11 *461:C2 *461:C1 0
12 *479:B2 *74:12 1.47153e-05
13 *72:23 *74:12 2.41998e-05
14 *72:40 *74:12 5.23318e-05
*RES
1 *390:ZN *74:12 26.6786 
2 *74:12 *391:A2 5 
3 *74:12 *461:C1 27.7857 
*END

*D_NET *75 0.000147206
*CONN
*I *393:A2 I *D NOR3_X1
*I *392:ZN O *D INV_X1
*CAP
1 *393:A2 1.71324e-05
2 *392:ZN 1.71324e-05
3 *393:A2 *187:8 3.25548e-05
4 *393:A2 *258:30 4.24402e-05
5 *393:A2 *258:41 3.79464e-05
*RES
1 *392:ZN *393:A2 24.3214 
*END

*D_NET *76 0.000340176
*CONN
*I *457:C1 I *D OAI211_X1
*I *395:A1 I *D NOR2_X1
*I *394:ZN O *D INV_X1
*CAP
1 *457:C1 5.75069e-05
2 *395:A1 0
3 *394:ZN 3.81428e-05
4 *76:8 9.56497e-05
5 *457:C1 *457:A 4.96458e-05
6 *457:C1 *188:10 1.33584e-05
7 *457:C1 *257:21 3.18816e-05
8 *76:8 *184:8 0
9 *76:8 *188:10 5.75004e-07
10 *76:8 *257:21 4.17973e-05
11 *395:A2 *457:C1 0
12 *461:C2 *457:C1 1.21774e-06
13 *72:62 *457:C1 1.04006e-05
*RES
1 *394:ZN *76:8 15.6786 
2 *76:8 *395:A1 10 
3 *76:8 *457:C1 19.0714 
*END

*D_NET *77 0.000101511
*CONN
*I *399:A2 I *D NOR4_X1
*I *396:ZN O *D INV_X1
*CAP
1 *399:A2 1.9371e-05
2 *396:ZN 1.9371e-05
3 *399:A2 *78:12 5.43932e-05
4 *399:A2 *165:32 8.37618e-06
*RES
1 *396:ZN *399:A2 22.9643 
*END

*D_NET *78 0.00136768
*CONN
*I *412:A2 I *D NOR3_X1
*I *399:A3 I *D NOR4_X1
*I *483:B2 I *D AOI21_X1
*I *397:ZN O *D OR2_X1
*CAP
1 *412:A2 7.37959e-05
2 *399:A3 4.82248e-06
3 *483:B2 0.000245479
4 *397:ZN 4.78539e-05
5 *78:27 8.51634e-05
6 *78:12 0.000299878
7 *399:A3 *399:A4 7.72792e-06
8 *399:A3 *165:32 3.09411e-06
9 *412:A2 *399:A4 7.03416e-05
10 *412:A2 *412:A1 2.61469e-06
11 *412:A2 *465:A4 1.65162e-05
12 *412:A2 *160:16 2.99387e-05
13 *412:A2 *165:32 3.65322e-06
14 *412:A2 *165:34 1.91954e-06
15 *412:A2 *194:14 9.76062e-06
16 *412:A2 *264:30 1.28914e-05
17 *483:B2 *424:A3 5.19537e-05
18 *483:B2 *483:A 1.18232e-06
19 *483:B2 *88:10 2.21442e-05
20 *483:B2 *94:23 4.27096e-05
21 *483:B2 *163:18 2.25089e-06
22 *483:B2 *233:31 4.21746e-05
23 *483:B2 *266:9 6.14467e-05
24 *483:B2 *277:9 5.79944e-05
25 *78:12 grant[25] 2.77939e-05
26 *78:12 *287:A4 8.34066e-06
27 *78:12 *193:10 7.98408e-05
28 *399:A2 *78:12 5.43932e-05
*RES
1 *397:ZN *78:12 17.8214 
2 *78:12 *483:B2 39.4286 
3 *78:12 *78:27 5.75 
4 *78:27 *399:A3 5.75 
5 *78:27 *412:A2 26.6071 
*END

*D_NET *79 0.00103869
*CONN
*I *399:A4 I *D NOR4_X1
*I *416:A2 I *D NOR2_X1
*I *412:A3 I *D NOR3_X1
*I *398:ZN O *D NAND3_X1
*CAP
1 *399:A4 6.61748e-05
2 *416:A2 0
3 *412:A3 5.38095e-05
4 *398:ZN 5.58979e-05
5 *79:12 6.98532e-05
6 *79:8 0.000138116
7 *399:A4 *413:A 8.43215e-07
8 *399:A4 *465:A4 6.94902e-05
9 *399:A4 *119:10 4.90581e-06
10 *399:A4 *176:10 9.9547e-05
11 *399:A4 *194:14 2.38318e-05
12 *412:A3 *464:A2 2.89018e-05
13 *412:A3 *465:A4 7.29164e-07
14 *412:A3 *119:10 7.90387e-05
15 *412:A3 *160:16 4.27924e-05
16 *412:A3 *194:14 2.18279e-06
17 *79:8 *119:10 1.67624e-05
18 *79:8 *176:10 0.000139174
19 *79:12 *217:12 3.45517e-05
20 *79:12 *220:8 3.40142e-05
21 *399:A3 *399:A4 7.72792e-06
22 *412:A2 *399:A4 7.03416e-05
*RES
1 *398:ZN *79:8 17.7143 
2 *79:8 *79:12 8.25 
3 *79:12 *412:A3 22.2857 
4 *79:12 *416:A2 5 
5 *79:8 *399:A4 22.9286 
*END

*D_NET *80 4.7705e-05
*CONN
*I *402:A2 I *D NOR2_X1
*I *401:ZN O *D NAND2_X1
*CAP
1 *402:A2 1.93141e-05
2 *401:ZN 1.93141e-05
3 *402:A2 *401:A1 4.2963e-06
4 *402:A2 *223:21 0
5 *402:A2 *262:23 4.78054e-06
*RES
1 *401:ZN *402:A2 12.1786 
*END

*D_NET *81 0.000674981
*CONN
*I *461:B I *D OAI211_X1
*I *404:A I *D INV_X1
*I *403:ZN O *D NAND2_X1
*CAP
1 *461:B 4.89949e-05
2 *404:A 0
3 *403:ZN 2.31054e-05
4 *81:8 7.21003e-05
5 *461:B *457:B 4.48497e-05
6 *461:B *466:A1 3.38847e-05
7 *461:B *131:8 0
8 *461:B *192:8 1.77822e-05
9 *461:B *215:8 3.31551e-05
10 *461:B *215:16 3.84423e-05
11 *461:B *216:8 8.02977e-06
12 *81:8 *192:8 0.000146149
13 *81:8 *215:16 0.000146939
14 *461:A *461:B 6.15485e-05
*RES
1 *403:ZN *81:8 17.7143 
2 *81:8 *404:A 10 
3 *81:8 *461:B 20.25 
*END

*D_NET *82 1.74261e-05
*CONN
*I *410:A1 I *D AND4_X1
*I *405:ZN O *D INV_X1
*CAP
1 *410:A1 8.71307e-06
2 *405:ZN 8.71307e-06
*RES
1 *405:ZN *410:A1 10.9286 
*END

*D_NET *83 0.00159363
*CONN
*I *408:A1 I *D NOR2_X1
*I *482:B1 I *D OAI221_X1
*I *432:A3 I *D NOR3_X1
*I *406:ZN O *D OR4_X2
*CAP
1 *408:A1 0.000102105
2 *482:B1 4.62305e-06
3 *432:A3 7.31452e-05
4 *406:ZN 1.35661e-05
5 *83:29 0.000219829
6 *83:8 0.000199813
7 *408:A1 *408:A2 1.21774e-06
8 *408:A1 *482:A 0
9 *408:A1 *482:C1 2.89018e-05
10 *408:A1 *483:A 1.76327e-05
11 *408:A1 *163:18 0.000105231
12 *408:A1 *233:41 4.88663e-05
13 *408:A1 *266:9 1.13438e-05
14 *408:A1 *277:9 1.0024e-05
15 *432:A3 *432:A2 7.29164e-07
16 *432:A3 *180:12 3.49085e-06
17 *432:A3 *202:12 1.77822e-05
18 *432:A3 *234:13 0
19 *432:A3 *246:13 4.44109e-05
20 *432:A3 *262:5 9.15688e-05
21 *432:A3 *282:27 1.26998e-05
22 *482:B1 *482:A 7.19036e-06
23 *482:B1 *482:B2 7.72792e-06
24 *83:8 *277:13 2.3767e-06
25 *83:8 *282:27 9.77674e-06
26 *83:29 *429:A3 0.000127544
27 *83:29 *482:B2 7.58325e-05
28 *83:29 *266:9 1.17831e-05
29 *83:29 *277:9 5.11191e-06
30 *83:29 *277:13 3.01293e-05
31 *3:10 *83:8 4.16464e-05
32 *3:10 *83:29 0.000105043
33 *3:34 *83:29 6.33941e-05
34 *3:47 *83:29 9.90959e-05
*RES
1 *406:ZN *83:8 12.2857 
2 *83:8 *432:A3 31.8571 
3 *83:8 *83:29 19.9286 
4 *83:29 *482:B1 10.75 
5 *83:29 *408:A1 25.3214 
*END

*D_NET *84 0.000810008
*CONN
*I *408:A2 I *D NOR2_X1
*I *490:B1 I *D OAI21_X1
*I *407:ZN O *D OR4_X1
*CAP
1 *408:A2 2.55522e-05
2 *490:B1 3.87379e-05
3 *407:ZN 0.000114818
4 *84:12 0.000179108
5 *408:A2 *163:18 1.90208e-06
6 *408:A2 *164:20 3.18741e-05
7 *408:A2 *233:41 4.04937e-05
8 *490:B1 *135:14 7.19036e-06
9 *84:12 *407:A3 1.88334e-06
10 *84:12 *407:A4 3.48838e-06
11 *84:12 *91:12 1.23486e-05
12 *84:12 *164:20 4.43172e-05
13 *84:12 *165:16 3.50334e-05
14 *84:12 *230:21 2.34596e-05
15 *84:12 *233:41 4.48548e-05
16 *377:A1 *490:B1 2.52965e-06
17 *408:A1 *408:A2 1.21774e-06
18 *3:51 *490:B1 6.48715e-05
19 *3:60 *490:B1 3.75418e-05
20 *4:19 *490:B1 4.11048e-05
21 *4:30 *490:B1 5.76817e-05
*RES
1 *407:ZN *84:12 30.3571 
2 *84:12 *490:B1 21.6786 
3 *84:12 *408:A2 9.25 
*END

*D_NET *85 0.00167676
*CONN
*I *410:A3 I *D AND4_X1
*I *425:A2 I *D AND2_X2
*I *414:A1 I *D AND2_X1
*I *408:ZN O *D NOR2_X1
*CAP
1 *410:A3 8.68195e-05
2 *425:A2 0
3 *414:A1 0
4 *408:ZN 8.74997e-05
5 *85:27 0.000279324
6 *85:12 0.000280004
7 *410:A3 *420:A1 6.38328e-07
8 *410:A3 *422:A 0.000128603
9 *410:A3 *424:A2 4.80378e-06
10 *410:A3 *425:A1 5.39412e-06
11 *410:A3 *205:10 0.000267364
12 *410:A3 *233:15 9.57492e-07
13 *410:A3 *238:13 2.83077e-06
14 *410:A3 *268:9 2.3767e-06
15 *410:A3 *269:15 1.91954e-06
16 *410:A3 *270:9 9.08762e-05
17 *85:12 *94:23 0
18 *85:12 *135:14 0
19 *85:12 *161:12 1.91164e-05
20 *85:12 *164:20 7.66675e-07
21 *85:12 *180:12 0.000141033
22 *85:27 *424:A3 1.88974e-05
23 *85:27 *425:A1 7.72792e-06
24 *85:27 *483:A 5.11118e-06
25 *85:27 *119:10 1.92792e-05
26 *85:27 *152:39 8.24917e-06
27 *85:27 *170:25 0
28 *85:27 *176:10 3.81888e-05
29 *85:27 *238:13 2.08943e-05
30 *5:14 *85:27 0.000106582
31 *5:16 *85:12 4.91108e-05
32 *5:16 *85:27 2.39679e-06
*RES
1 *408:ZN *85:12 27.4643 
2 *85:12 *414:A1 5 
3 *85:12 *85:27 36.1786 
4 *85:27 *425:A2 5 
5 *85:27 *410:A3 32 
*END

*D_NET *86 0.00081046
*CONN
*I *410:A4 I *D AND4_X1
*I *482:C2 I *D OAI221_X1
*I *420:A4 I *D NAND4_X1
*I *409:ZN O *D NOR2_X1
*CAP
1 *410:A4 2.66175e-05
2 *482:C2 9.21009e-05
3 *420:A4 4.59802e-05
4 *409:ZN 4.39548e-05
5 *86:10 0.000145805
6 *86:8 7.82962e-05
7 *410:A4 *410:A2 3.5628e-06
8 *410:A4 *420:A1 0
9 *410:A4 *233:15 4.69702e-07
10 *410:A4 *233:31 3.33008e-05
11 *420:A4 *92:8 4.50392e-06
12 *420:A4 *119:10 1.1397e-05
13 *420:A4 *152:45 9.16428e-05
14 *420:A4 *206:35 4.69886e-06
15 *420:A4 *235:17 2.40703e-05
16 *482:C2 *420:A1 5.69552e-06
17 *482:C2 *482:A 2.39679e-06
18 *482:C2 *482:C1 8.43215e-07
19 *482:C2 *483:A 2.61827e-06
20 *482:C2 *163:20 0
21 *482:C2 *206:35 2.10785e-05
22 *482:C2 *233:31 2.64041e-05
23 *86:8 *409:A1 3.17021e-06
24 *86:8 *119:10 7.32662e-06
25 *86:8 *152:45 0.000100524
26 *86:10 *119:10 4.30618e-06
27 *86:10 *152:45 2.96955e-05
*RES
1 *409:ZN *86:8 15.6786 
2 *86:8 *86:10 1.60714 
3 *86:10 *420:A4 17.25 
4 *86:10 *482:C2 22.25 
5 *86:8 *410:A4 13.5 
*END

*D_NET *87 0.000107229
*CONN
*I *412:A1 I *D NOR3_X1
*I *411:ZN O *D INV_X1
*CAP
1 *412:A1 2.77925e-05
2 *411:ZN 2.77925e-05
3 *412:A1 *165:34 3.5795e-05
4 *412:A1 *194:14 1.32348e-05
5 *412:A2 *412:A1 2.61469e-06
*RES
1 *411:ZN *412:A1 14.1786 
*END

*D_NET *88 0.000550999
*CONN
*I *416:A1 I *D NOR2_X1
*I *415:A1 I *D AND3_X1
*I *413:ZN O *D INV_X1
*CAP
1 *416:A1 6.83599e-05
2 *415:A1 2.09373e-05
3 *413:ZN 2.1831e-05
4 *88:10 0.000111128
5 *415:A1 *415:A2 7.72792e-06
6 *415:A1 *220:8 3.86345e-05
7 *415:A1 *266:13 3.0369e-05
8 *416:A1 *465:A4 0
9 *416:A1 *194:14 2.1136e-05
10 *416:A1 *220:8 0.000114661
11 *416:A1 *266:13 2.85098e-05
12 *88:10 *277:9 6.55603e-05
13 *483:B2 *88:10 2.21442e-05
*RES
1 *413:ZN *88:10 18.6429 
2 *88:10 *415:A1 8.75 
3 *88:10 *416:A1 16 
*END

*D_NET *89 0.00055181
*CONN
*I *415:A3 I *D AND3_X1
*I *483:B1 I *D AOI21_X1
*I *414:ZN O *D AND2_X1
*CAP
1 *415:A3 9.29913e-05
2 *483:B1 4.10084e-05
3 *414:ZN 0
4 *89:6 0.000134
5 *415:A3 *170:21 8.48929e-05
6 *415:A3 *204:10 7.14265e-05
7 *415:A3 *266:24 1.72426e-05
8 *415:A3 *267:25 5.54348e-05
9 *483:B1 *170:21 1.39582e-06
10 *483:B1 *178:27 1.67788e-06
11 *483:B1 *204:10 3.78342e-05
12 *483:B1 *267:13 1.39063e-05
*RES
1 *414:ZN *89:6 10 
2 *89:6 *483:B1 15.6786 
3 *89:6 *415:A3 24.5 
*END

*D_NET *90 0.000245014
*CONN
*I *419:A1 I *D AND4_X1
*I *417:ZN O *D INV_X1
*CAP
1 *419:A1 5.40273e-05
2 *417:ZN 5.40273e-05
3 *419:A1 *419:A2 2.75346e-06
4 *419:A1 *164:22 1.80284e-05
5 *419:A1 *180:12 2.48043e-05
6 *419:A1 *202:12 2.48043e-05
7 *419:A1 *273:45 5.37286e-05
8 *3:47 *419:A1 1.28398e-05
*RES
1 *417:ZN *419:A1 28.8929 
*END

*D_NET *91 0.00131804
*CONN
*I *482:B2 I *D OAI221_X1
*I *429:A3 I *D NAND3_X1
*I *419:A4 I *D AND4_X1
*I *418:ZN O *D NOR2_X1
*CAP
1 *482:B2 3.18323e-05
2 *429:A3 4.56868e-05
3 *419:A4 0
4 *418:ZN 7.99504e-05
5 *91:21 0.000153983
6 *91:12 0.000156414
7 *429:A3 *429:A1 4.21607e-06
8 *429:A3 *226:15 3.97419e-05
9 *429:A3 *273:25 4.24423e-05
10 *429:A3 *275:25 1.83053e-06
11 *429:A3 *277:13 1.66016e-05
12 *482:B2 *482:A 1.68643e-06
13 *482:B2 *206:35 1.25215e-05
14 *482:B2 *226:15 4.65045e-05
15 *482:B2 *277:9 4.7875e-06
16 *482:B2 *277:13 7.0484e-06
17 *91:12 *407:A3 4.26902e-05
18 *91:12 *407:A4 3.23723e-07
19 *91:12 *419:A2 1.87637e-06
20 *91:12 *230:21 7.92374e-05
21 *91:12 *235:17 2.30003e-05
22 *91:12 *272:13 1.83151e-05
23 *91:12 *272:19 3.09143e-06
24 *91:21 *235:17 0.000140401
25 *482:B1 *482:B2 7.72792e-06
26 *3:47 *91:12 2.39679e-06
27 *3:47 *91:21 0.000138005
28 *83:29 *429:A3 0.000127544
29 *83:29 *482:B2 7.58325e-05
30 *84:12 *91:12 1.23486e-05
*RES
1 *418:ZN *91:12 26.3214 
2 *91:12 *419:A4 5 
3 *91:12 *91:21 18.75 
4 *91:21 *429:A3 18.2857 
5 *91:21 *482:B2 15.5714 
*END

*D_NET *92 0.000373793
*CONN
*I *421:A I *D INV_X1
*I *463:A1 I *D NAND4_X1
*I *420:ZN O *D NAND4_X1
*CAP
1 *421:A 2.85791e-05
2 *463:A1 2.12427e-05
3 *420:ZN 5.75198e-05
4 *92:8 0.000107342
5 *421:A *152:45 1.95535e-06
6 *421:A *230:9 4.1923e-05
7 *421:A *273:17 4.13905e-05
8 *463:A1 *463:A2 2.16707e-05
9 *463:A1 *119:10 4.88182e-06
10 *463:A1 *152:45 7.1624e-06
11 *463:A1 *230:9 1.68643e-06
12 *463:A1 *275:13 1.0303e-05
13 *92:8 *119:10 1.26253e-05
14 *92:8 *152:45 1.10077e-05
15 *420:A4 *92:8 4.50392e-06
*RES
1 *420:ZN *92:8 15.75 
2 *92:8 *463:A1 13.2143 
3 *92:8 *421:A 15.0714 
*END

*D_NET *93 0.000133094
*CONN
*I *424:A2 I *D NOR3_X1
*I *422:ZN O *D INV_X1
*CAP
1 *424:A2 1.49614e-05
2 *422:ZN 1.49614e-05
3 *424:A2 *422:A 4.01832e-05
4 *424:A2 *425:A1 4.0944e-05
5 *424:A2 *271:37 1.72405e-05
6 *410:A3 *424:A2 4.80378e-06
*RES
1 *422:ZN *424:A2 22.9643 
*END

*D_NET *94 0.00224964
*CONN
*I *424:A3 I *D NOR3_X1
*I *482:C1 I *D OAI221_X1
*I *498:A I *D AOI221_X1
*I *423:ZN O *D NAND2_X1
*CAP
1 *424:A3 0.000164239
2 *482:C1 2.29599e-05
3 *498:A 2.17992e-05
4 *423:ZN 0
5 *94:23 0.000299545
6 *94:10 0.000391945
7 *94:4 0.000482492
8 *424:A3 grant[34] 1.25215e-05
9 *424:A3 *290:A3 7.19036e-06
10 *424:A3 *422:A 2.94455e-05
11 *424:A3 *483:A 4.60341e-05
12 *424:A3 *152:39 0
13 *424:A3 *170:25 0
14 *424:A3 *178:31 6.6339e-05
15 *424:A3 *266:9 4.40564e-07
16 *424:A3 *271:37 2.94455e-05
17 *424:A3 *277:9 4.80378e-06
18 *482:C1 *482:A 1.18232e-06
19 *482:C1 *483:A 4.81397e-05
20 *482:C1 *266:9 3.83584e-06
21 *482:C1 *277:9 5.11191e-06
22 *498:A *497:A2 1.82068e-05
23 *94:10 *301:A4 5.31666e-06
24 *94:10 *337:A1 2.52965e-06
25 *94:10 *497:A2 2.84765e-06
26 *94:10 *135:14 7.99575e-06
27 *94:10 *152:35 7.47756e-06
28 *94:10 *163:18 5.44302e-05
29 *94:10 *164:8 0
30 *94:10 *183:21 5.74689e-06
31 *94:10 *186:12 0
32 *94:10 *206:23 0
33 *94:10 *226:27 3.41642e-05
34 *94:10 *233:41 1.61803e-06
35 *94:10 *282:49 1.97747e-05
36 *94:23 *135:14 2.00919e-05
37 *94:23 *163:18 0.000136885
38 *328:A4 *94:10 7.19036e-06
39 *408:A1 *482:C1 2.89018e-05
40 *423:A2 *94:23 1.19839e-05
41 *482:C2 *482:C1 8.43215e-07
42 *483:B2 *424:A3 5.19537e-05
43 *483:B2 *94:23 4.27096e-05
44 *490:B2 *94:23 3.09143e-06
45 *498:B1 *498:A 1.32323e-05
46 *498:C2 *498:A 3.86294e-05
47 *500:A2 *94:10 6.63045e-05
48 *16:14 *94:10 3.09411e-06
49 *36:19 *94:10 7.34989e-06
50 *66:6 *498:A 9.01846e-07
51 *85:12 *94:23 0
52 *85:27 *424:A3 1.88974e-05
*RES
1 *423:ZN *94:4 5 
2 *94:4 *94:10 49.5 
3 *94:10 *498:A 13.75 
4 *94:4 *94:23 21.25 
5 *94:23 *482:C1 13.7143 
6 *94:23 *424:A3 42.4286 
*END

*D_NET *95 0.000224475
*CONN
*I *428:A1 I *D AND3_X1
*I *426:ZN O *D INV_X1
*CAP
1 *428:A1 5.49054e-05
2 *426:ZN 5.49054e-05
3 *428:A1 grant[29] 0
4 *428:A1 *406:A3 7.72792e-06
5 *428:A1 *428:A2 2.88639e-05
6 *428:A1 *96:12 1.82699e-05
7 *428:A1 *178:23 5.52692e-06
8 *428:A1 *278:21 3.98778e-05
9 *428:A1 *279:27 1.87637e-06
10 *3:10 *428:A1 1.25215e-05
*RES
1 *426:ZN *428:A1 18.25 
*END

*D_NET *96 0.00132295
*CONN
*I *435:A2 I *D AND2_X1
*I *428:A3 I *D AND3_X1
*I *482:A I *D OAI221_X1
*I *427:ZN O *D NOR2_X1
*CAP
1 *435:A2 2.39386e-05
2 *428:A3 0
3 *482:A 0.000227385
4 *427:ZN 1.96907e-05
5 *96:12 0.000326784
6 *96:10 0.000143029
7 *435:A2 *435:A1 3.03512e-06
8 *435:A2 *274:5 0
9 *435:A2 *278:19 9.61947e-06
10 *482:A *483:A 1.27666e-06
11 *482:A *178:27 0.000184556
12 *482:A *204:10 0.000118649
13 *482:A *206:33 2.83315e-05
14 *482:A *206:35 1.65202e-06
15 *482:A *229:9 3.93544e-05
16 *482:A *233:41 9.62051e-07
17 *482:A *258:11 1.23137e-05
18 *96:10 *203:8 4.09436e-05
19 *96:12 *288:A4 2.15711e-05
20 *96:12 *428:A2 2.83289e-05
21 *96:12 *207:8 5.81102e-06
22 *96:12 *274:5 0
23 *96:12 *274:13 2.73238e-06
24 *96:12 *278:19 3.526e-05
25 *96:12 *278:21 5.01331e-06
26 *408:A1 *482:A 0
27 *428:A1 *96:12 1.82699e-05
28 *482:B1 *482:A 7.19036e-06
29 *482:B2 *482:A 1.68643e-06
30 *482:C1 *482:A 1.18232e-06
31 *482:C2 *482:A 2.39679e-06
32 *3:10 *96:12 1.19839e-05
*RES
1 *427:ZN *96:10 17.2857 
2 *96:10 *96:12 13.25 
3 *96:12 *482:A 48.5 
4 *96:12 *428:A3 5 
5 *96:10 *435:A2 7.92857 
*END

*D_NET *97 0.000311285
*CONN
*I *463:A2 I *D NAND4_X1
*I *430:A I *D INV_X1
*I *429:ZN O *D NAND3_X1
*CAP
1 *463:A2 2.54791e-05
2 *430:A 0
3 *429:ZN 5.51403e-05
4 *97:6 8.06194e-05
5 *463:A2 *463:A4 3.65322e-06
6 *463:A2 *119:10 5.64879e-06
7 *463:A2 *152:45 4.16195e-06
8 *463:A2 *203:8 4.80268e-06
9 *463:A2 *230:9 1.36959e-06
10 *463:A2 *230:19 2.6096e-06
11 *463:A2 *275:13 7.72537e-06
12 *97:6 *119:10 7.19036e-06
13 *97:6 *230:19 7.56614e-05
14 *97:6 *275:13 1.55529e-05
15 *97:6 *275:25 0
16 *463:A1 *463:A2 2.16707e-05
*RES
1 *429:ZN *97:6 13.25 
2 *97:6 *430:A 5 
3 *97:6 *463:A2 18.7857 
*END

*D_NET *98 0.000212849
*CONN
*I *432:A2 I *D NOR3_X1
*I *431:ZN O *D INV_X1
*CAP
1 *432:A2 5.96357e-05
2 *431:ZN 5.96357e-05
3 *432:A2 *159:23 6.77571e-05
4 *432:A2 *234:13 0
5 *432:A2 *246:13 1.02064e-05
6 *432:A2 *274:13 1.17933e-05
7 *432:A2 *274:22 3.0915e-06
8 *432:A3 *432:A2 7.29164e-07
*RES
1 *431:ZN *432:A2 28.0714 
*END

*D_NET *99 0.000189871
*CONN
*I *434:A I *D INV_X1
*I *463:A3 I *D NAND4_X1
*I *433:ZN O *D NAND2_X1
*CAP
1 *434:A 4.13923e-06
2 *463:A3 1.35702e-05
3 *433:ZN 3.38095e-05
4 *99:8 5.15189e-05
5 *434:A *463:A4 2.25089e-06
6 *434:A *223:17 5.50692e-06
7 *463:A3 *152:45 2.38139e-06
8 *463:A3 *203:8 4.32319e-05
9 *99:8 *223:17 2.95773e-05
10 *99:8 *275:13 0
11 *99:8 *275:25 3.88456e-06
*RES
1 *433:ZN *99:8 9.35714 
2 *99:8 *463:A3 17.2857 
3 *99:8 *434:A 5.75 
*END

*D_NET *100 0.000325939
*CONN
*I *462:B1 I *D AOI21_X1
*I *437:A2 I *D NOR2_X1
*I *436:ZN O *D INV_X1
*CAP
1 *462:B1 5.07756e-05
2 *437:A2 0
3 *436:ZN 3.55182e-05
4 *100:14 8.62938e-05
5 *462:B1 grant[29] 4.12459e-06
6 *462:B1 *438:A 2.77515e-05
7 *462:B1 *462:A 7.19036e-06
8 *462:B1 *209:8 1.25189e-05
9 *462:B1 *278:15 8.43215e-07
10 *462:B1 *280:13 4.79358e-06
11 *462:B1 *280:24 4.11965e-05
12 *462:B1 *280:39 6.82202e-07
13 *100:14 grant[29] 4.78054e-06
14 *100:14 *209:8 2.75346e-06
15 *100:14 *210:12 1.39582e-06
16 *100:14 *271:9 4.17577e-05
17 *100:14 *279:23 0
18 *100:14 *280:45 3.5628e-06
*RES
1 *436:ZN *100:14 19.4643 
2 *100:14 *437:A2 5 
3 *100:14 *462:B1 21.1429 
*END

*D_NET *101 0.000209496
*CONN
*I *440:A2 I *D NAND3_X1
*I *439:ZN O *D NOR2_X1
*CAP
1 *440:A2 5.60797e-05
2 *439:ZN 5.60797e-05
3 *440:A2 *286:A4 4.02148e-05
4 *440:A2 *440:A1 2.24074e-05
5 *440:A2 *102:8 1.88334e-06
6 *440:A2 *188:10 1.04925e-05
7 *440:A2 *254:51 1.7206e-05
8 *440:A3 *440:A2 5.13262e-06
*RES
1 *439:ZN *440:A2 28.4643 
*END

*D_NET *102 0.000621341
*CONN
*I *441:A I *D INV_X1
*I *457:A I *D OAI211_X1
*I *440:ZN O *D NAND3_X1
*CAP
1 *441:A 1.74839e-05
2 *457:A 9.36399e-05
3 *440:ZN 7.77705e-05
4 *102:8 0.000188894
5 *457:A *457:B 1.21774e-06
6 *457:A *188:10 5.81144e-05
7 *457:A *257:21 2.47682e-05
8 *102:8 *188:10 9.00678e-05
9 *102:8 *257:17 1.04729e-05
10 *102:8 *257:21 5.1194e-06
11 *440:A2 *102:8 1.88334e-06
12 *440:A3 *102:8 2.26306e-06
13 *457:C1 *457:A 4.96458e-05
*RES
1 *440:ZN *102:8 22.4643 
2 *102:8 *457:A 23.9643 
3 *102:8 *441:A 11.75 
*END

*D_NET *103 0.000446124
*CONN
*I *468:A1 I *D AND3_X1
*I *453:B2 I *D OAI21_X1
*I *443:A1 I *D NOR2_X1
*I *442:ZN O *D INV_X1
*CAP
1 *468:A1 3.3795e-05
2 *453:B2 6.96044e-05
3 *443:A1 0
4 *442:ZN 8.71307e-06
5 *103:14 0.000122014
6 *103:6 9.49172e-05
7 *468:A1 *468:A2 2.39679e-06
8 *468:A1 *243:43 6.38328e-07
9 *103:14 *442:A 1.21774e-06
10 *103:14 *151:8 4.78905e-05
11 *103:14 *283:15 4.62385e-05
12 *310:A4 *468:A1 6.60094e-06
13 *310:A4 *103:14 2.08416e-06
14 *443:A2 *453:B2 8.95483e-06
15 *443:A2 *468:A1 0
16 *443:A2 *103:14 0
17 *453:A *453:B2 2.16072e-07
18 *22:45 *468:A1 8.43215e-07
*RES
1 *442:ZN *103:6 5.92857 
2 *103:6 *103:14 18.6071 
3 *103:14 *443:A1 5 
4 *103:14 *453:B2 12.3571 
5 *103:6 *468:A1 8.75 
*END

*D_NET *104 0.000429272
*CONN
*I *472:A3 I *D NAND3_X1
*I *504:A3 I *D AND4_X1
*I *447:A2 I *D AND3_X2
*I *444:ZN O *D NOR2_X1
*CAP
1 *472:A3 0
2 *504:A3 0
3 *447:A2 7.47806e-05
4 *444:ZN 2.01161e-05
5 *104:14 9.54339e-05
6 *104:8 4.07693e-05
7 *447:A2 *444:A1 4.32144e-07
8 *447:A2 *447:A3 2.72472e-05
9 *447:A2 *504:A2 2.39679e-06
10 *447:A2 *504:A4 1.19839e-05
11 *447:A2 *276:33 3.045e-06
12 *104:8 *305:A2 4.30918e-06
13 *104:8 *444:A1 5.12439e-06
14 *104:8 *472:A1 2.25089e-06
15 *104:8 *472:A2 2.39679e-06
16 *104:8 *473:A2 2.75346e-06
17 *104:8 *276:33 1.1519e-06
18 *104:8 *281:22 1.18589e-06
19 *104:14 *472:A1 2.89018e-05
20 *104:14 *472:A2 6.78899e-05
21 *104:14 *106:19 4.44127e-06
22 *104:14 *124:8 2.4406e-05
23 *104:14 *265:32 8.25592e-06
*RES
1 *444:ZN *104:8 7.67857 
2 *104:8 *104:14 14.3214 
3 *104:14 *447:A2 14.7857 
4 *104:14 *504:A3 5 
5 *104:8 *472:A3 5 
*END

*D_NET *105 0.00178716
*CONN
*I *499:B1 I *D OAI21_X1
*I *473:A1 I *D NAND3_X2
*I *446:A1 I *D AND2_X2
*I *445:ZN O *D AND2_X1
*CAP
1 *499:B1 0.000105978
2 *473:A1 0
3 *446:A1 7.72156e-05
4 *445:ZN 4.07026e-05
5 *105:12 0.000302566
6 *105:6 0.000372031
7 *446:A1 *455:A1 2.61469e-06
8 *446:A1 *467:A2 6.38328e-07
9 *446:A1 *139:16 0.000109692
10 *499:B1 *499:A 1.72405e-05
11 *499:B1 *127:10 0
12 *499:B1 *138:10 4.93511e-05
13 *499:B1 *218:8 1.11168e-06
14 *499:B1 *232:13 5.8617e-05
15 *499:B1 *255:13 2.76994e-06
16 *499:B1 *265:5 1.77043e-05
17 *105:6 *232:13 8.73051e-05
18 *105:12 *127:10 9.41773e-05
19 *105:12 *154:8 1.63526e-06
20 *105:12 *173:16 4.16269e-05
21 *105:12 *195:12 3.34324e-06
22 *318:A4 *499:B1 2.39679e-06
23 *318:A4 *105:6 8.67701e-05
24 *446:A2 *446:A1 0.00010161
25 *473:A3 *446:A1 4.12459e-06
26 *30:8 *105:12 7.51534e-05
27 *30:32 *105:12 1.48912e-05
28 *30:43 *105:12 3.6515e-05
29 *30:71 *105:12 7.93808e-05
*RES
1 *445:ZN *105:6 13.25 
2 *105:6 *105:12 42.8214 
3 *105:12 *446:A1 19.1071 
4 *105:12 *473:A1 5 
5 *105:6 *499:B1 29.1429 
*END

*D_NET *106 0.000735531
*CONN
*I *504:A4 I *D AND4_X1
*I *447:A3 I *D AND3_X2
*I *448:A2 I *D AND2_X1
*I *446:ZN O *D AND2_X2
*CAP
1 *504:A4 2.85216e-05
2 *447:A3 2.17683e-05
3 *448:A2 2.63921e-05
4 *446:ZN 4.22233e-05
5 *106:19 0.000155791
6 *106:8 0.000174117
7 *447:A3 *276:33 1.78556e-05
8 *448:A2 *212:26 1.03979e-05
9 *448:A2 *257:13 2.55387e-06
10 *448:A2 *282:57 1.55556e-05
11 *448:A2 *282:63 2.39679e-06
12 *504:A4 *471:A 7.16188e-07
13 *504:A4 *472:A2 4.18985e-05
14 *504:A4 *206:8 0
15 *106:8 *139:16 1.88334e-06
16 *106:8 *265:17 2.06943e-05
17 *106:19 *472:A2 4.16464e-05
18 *106:19 *206:8 0
19 *106:19 *265:17 3.83358e-05
20 *106:19 *265:32 3.39527e-06
21 *447:A2 *447:A3 2.72472e-05
22 *447:A2 *504:A4 1.19839e-05
23 *20:8 *106:8 1.63544e-05
24 *20:8 *106:19 2.93614e-05
25 *104:14 *106:19 4.44127e-06
*RES
1 *446:ZN *106:8 15.6786 
2 *106:8 *448:A2 13.75 
3 *106:8 *106:19 13.8214 
4 *106:19 *447:A3 13.75 
5 *106:19 *504:A4 13.5357 
*END

*D_NET *107 0.000360731
*CONN
*I *451:A2 I *D AND3_X2
*I *503:A3 I *D AND4_X1
*I *449:ZN O *D NOR2_X1
*CAP
1 *451:A2 7.35627e-05
2 *503:A3 0
3 *449:ZN 1.39603e-05
4 *107:8 8.7523e-05
5 *451:A2 *451:A1 7.19036e-06
6 *451:A2 *502:A 6.707e-06
7 *451:A2 *503:A1 6.81795e-05
8 *451:A2 *151:8 3.57834e-05
9 *451:A2 *152:10 7.11918e-06
10 *451:A2 *284:9 0
11 *451:A2 *284:11 0
12 *107:8 *503:A1 2.94455e-05
13 *107:8 *151:8 2.2331e-05
14 *107:8 *283:15 8.92915e-06
*RES
1 *449:ZN *107:8 12.9643 
2 *107:8 *503:A3 10 
3 *107:8 *451:A2 20.75 
*END

*D_NET *108 0.000969493
*CONN
*I *452:A2 I *D AND2_X1
*I *476:A3 I *D AND3_X2
*I *503:A4 I *D AND4_X1
*I *451:A3 I *D AND3_X2
*I *450:ZN O *D AND2_X2
*CAP
1 *452:A2 1.76146e-05
2 *476:A3 0
3 *503:A4 4.90216e-05
4 *451:A3 2.85115e-05
5 *450:ZN 0.00011839
6 *108:14 0.000100485
7 *108:10 0.000158956
8 *451:A3 *304:A1 1.66988e-05
9 *451:A3 *257:17 1.48346e-05
10 *451:A3 *284:9 2.94455e-05
11 *451:A3 *284:11 4.11048e-05
12 *452:A2 *452:A1 7.66675e-07
13 *452:A2 *109:12 1.87418e-05
14 *452:A2 *153:8 2.08098e-06
15 *452:A2 *221:9 1.27467e-05
16 *503:A4 *304:A2 1.04834e-05
17 *503:A4 *476:A2 2.75346e-06
18 *503:A4 *502:A 5.53285e-05
19 *503:A4 *503:A2 1.08036e-06
20 *503:A4 *109:12 1.68643e-06
21 *108:10 *452:A1 2.60555e-05
22 *108:10 *488:A2 4.32144e-07
23 *108:10 *153:8 2.08098e-06
24 *108:10 *188:20 0
25 *108:10 *221:9 0.000132613
26 *108:10 *223:33 4.83165e-05
27 *108:10 *223:35 1.87418e-05
28 *108:10 *285:12 2.35379e-05
29 *108:14 *476:A2 2.07793e-05
30 *108:14 *109:12 1.23711e-05
31 *19:8 *452:A2 0
32 *19:8 *108:10 3.83453e-06
*RES
1 *450:ZN *108:10 27.7857 
2 *108:10 *108:14 8.25 
3 *108:14 *451:A3 19.3214 
4 *108:14 *503:A4 11.6786 
5 *108:14 *476:A3 5 
6 *108:10 *452:A2 12.6786 
*END

*D_NET *109 0.000785524
*CONN
*I *454:A3 I *D NOR3_X1
*I *453:ZN O *D OAI21_X1
*CAP
1 *454:A3 0
2 *453:ZN 0.000231648
3 *109:12 0.000231648
4 *109:12 *304:A1 5.33584e-05
5 *109:12 *454:A2 5.72902e-05
6 *109:12 *476:A1 6.71335e-06
7 *109:12 *502:A 7.19036e-06
8 *109:12 *503:A1 0
9 *109:12 *152:10 4.50015e-05
10 *109:12 *152:16 3.78437e-06
11 *109:12 *188:10 3.36627e-05
12 *109:12 *223:41 1.55619e-05
13 *109:12 *243:37 2.71569e-05
14 *109:12 *257:17 2.56225e-05
15 *109:12 *283:15 0
16 *109:12 *284:11 1.2203e-05
17 *452:A2 *109:12 1.87418e-05
18 *453:B1 *109:12 1.88334e-06
19 *503:A4 *109:12 1.68643e-06
20 *19:8 *109:12 0
21 *108:14 *109:12 1.23711e-05
*RES
1 *453:ZN *109:12 48.2143 
2 *109:12 *454:A3 5 
*END

*D_NET *110 0.000211875
*CONN
*I *467:A1 I *D NAND3_X2
*I *488:A1 I *D NAND3_X1
*I *454:ZN O *D NOR3_X1
*CAP
1 *467:A1 0
2 *488:A1 2.58748e-05
3 *454:ZN 5.69708e-05
4 *110:10 8.28456e-05
5 *488:A1 *122:16 3.01743e-06
6 *488:A1 *214:14 0
7 *488:A1 *215:8 3.07768e-05
8 *110:10 *467:A2 2.39679e-06
9 *110:10 *488:A2 0
10 *110:10 *152:16 9.99264e-06
11 *110:10 *214:14 0
12 *19:8 *110:10 0
*RES
1 *454:ZN *110:10 16.0357 
2 *110:10 *488:A1 13.6429 
3 *110:10 *467:A1 10 
*END

*D_NET *111 0.000172335
*CONN
*I *467:A2 I *D NAND3_X2
*I *455:ZN O *D NOR3_X1
*CAP
1 *467:A2 7.33643e-05
2 *455:ZN 7.33643e-05
3 *467:A2 *455:A1 1.11435e-06
4 *467:A2 *455:A3 7.72792e-06
5 *467:A2 *488:A2 0
6 *467:A2 *122:16 2.23415e-06
7 *467:A2 *139:16 0
8 *467:A2 *152:16 1.14945e-05
9 *446:A1 *467:A2 6.38328e-07
10 *110:10 *467:A2 2.39679e-06
*RES
1 *455:ZN *467:A2 18.3571 
*END

*D_NET *112 0.00174374
*CONN
*I *486:A1 I *D NAND4_X1
*I *457:B I *D OAI211_X1
*I *456:ZN O *D AOI211_X1
*CAP
1 *486:A1 0
2 *457:B 0.000186659
3 *456:ZN 7.12677e-05
4 *112:22 0.000421935
5 *112:12 0.000306543
6 *457:B *466:A1 7.34533e-06
7 *457:B *156:20 0
8 *457:B *186:10 0
9 *112:12 *456:A 6.25848e-07
10 *112:12 *183:21 0
11 *112:12 *206:23 1.25557e-05
12 *112:12 *260:17 2.85072e-05
13 *112:12 *282:47 2.0613e-05
14 *112:12 *282:49 4.16195e-06
15 *112:22 *189:8 9.57005e-05
16 *112:22 *206:19 3.99091e-05
17 *112:22 *206:23 0.000289953
18 *112:22 *260:17 0.000112233
19 *112:22 *260:28 7.1141e-05
20 *457:A *457:B 1.21774e-06
21 *461:A *457:B 1.68643e-06
22 *461:B *457:B 4.48497e-05
23 *461:C2 *457:B 0
24 *479:A *112:22 2.68399e-05
*RES
1 *456:ZN *112:12 23 
2 *112:12 *112:22 46.8214 
3 *112:22 *457:B 29.6786 
4 *112:12 *486:A1 5 
*END

*D_NET *113 0.000464005
*CONN
*I *466:A1 I *D NOR4_X4
*I *457:ZN O *D OAI211_X1
*CAP
1 *466:A1 0.000133755
2 *457:ZN 0.000133755
3 *466:A1 *466:A3 0
4 *466:A1 *131:8 2.76176e-05
5 *466:A1 *156:20 7.72537e-06
6 *466:A1 *186:10 0
7 *457:B *466:A1 7.34533e-06
8 *461:A *466:A1 4.57782e-05
9 *461:B *466:A1 3.38847e-05
10 *461:C2 *466:A1 5.44368e-05
11 *52:10 *466:A1 1.97074e-05
*RES
1 *457:ZN *466:A1 39.0714 
*END

*D_NET *114 0.000451806
*CONN
*I *459:B I *D OAI211_X1
*I *458:ZN O *D NAND4_X1
*CAP
1 *459:B 0.000163277
2 *458:ZN 0.000163277
3 *459:B *115:10 4.75173e-05
4 *459:B *223:21 0
5 *458:A2 *459:B 1.11258e-05
6 *459:A *459:B 7.72792e-06
7 *459:C1 *459:B 1.68643e-06
8 *12:10 *459:B 5.45247e-05
9 *12:21 *459:B 2.66872e-06
10 *48:14 *459:B 0
*RES
1 *458:ZN *459:B 40.4643 
*END

*D_NET *115 0.00203466
*CONN
*I *460:A4 I *D OR4_X2
*I *459:ZN O *D OAI211_X1
*CAP
1 *460:A4 5.27972e-06
2 *459:ZN 1.52717e-05
3 *115:10 0.000564335
4 *115:8 0.000574327
5 *460:A4 *460:A2 1.21774e-06
6 *460:A4 *155:14 6.85774e-07
7 *460:A4 *191:30 7.72792e-06
8 *115:10 *460:A3 1.04395e-05
9 *115:10 *138:10 3.21789e-05
10 *115:10 *181:10 7.26279e-05
11 *115:10 *181:14 0.000151839
12 *115:10 *281:9 0
13 *307:A1 *115:10 8.00929e-05
14 *458:A2 *115:10 0
15 *459:B *115:10 4.75173e-05
16 *12:32 *115:10 9.23841e-05
17 *12:51 *115:10 0.000206131
18 *12:62 *115:10 0.000143706
19 *12:86 *115:10 2.89018e-05
*RES
1 *459:ZN *115:8 11.75 
2 *115:8 *115:10 75.5715 
3 *115:10 *460:A4 10.75 
*END

*D_NET *116 0.00186822
*CONN
*I *466:A2 I *D NOR4_X4
*I *460:ZN O *D OR4_X2
*CAP
1 *466:A2 0.000145552
2 *460:ZN 7.91954e-05
3 *116:12 0.000321045
4 *116:8 0.000254689
5 *466:A2 *156:20 3.88147e-05
6 *116:8 *303:A1 7.19036e-06
7 *116:8 *319:A1 3.73261e-06
8 *116:8 *155:14 7.19036e-06
9 *116:8 *188:28 5.60561e-05
10 *116:8 *191:26 3.23723e-07
11 *116:8 *191:30 6.81257e-05
12 *116:8 *225:25 3.07303e-05
13 *116:12 *303:A1 7.88859e-05
14 *116:12 *496:A 5.77444e-05
15 *116:12 *506:A1 2.26103e-05
16 *116:12 *154:8 0.000221193
17 *116:12 *191:26 0.000257141
18 *319:A2 *116:8 1.00845e-05
19 *319:A3 *116:8 1.26998e-05
20 *493:A2 *116:12 0.000195216
*RES
1 *460:ZN *116:8 23.25 
2 *116:8 *116:12 41.2143 
3 *116:12 *466:A2 21.25 
*END

*D_NET *117 0.000584605
*CONN
*I *466:A3 I *D NOR4_X4
*I *461:ZN O *D OAI211_X1
*CAP
1 *466:A3 0.000131761
2 *461:ZN 0.000131761
3 *466:A3 *122:10 0
4 *466:A3 *185:8 4.62026e-05
5 *466:A3 *223:27 0.00027488
6 *466:A1 *466:A3 0
*RES
1 *461:ZN *466:A3 40.25 
*END

*D_NET *118 0.000680106
*CONN
*I *463:A4 I *D NAND4_X1
*I *462:ZN O *D AOI21_X1
*CAP
1 *463:A4 0.000108644
2 *462:ZN 0.000108644
3 *463:A4 *205:8 4.48522e-05
4 *463:A4 *210:12 0.000107838
5 *463:A4 *223:17 7.16188e-07
6 *463:A4 *271:9 0.000294323
7 *463:A4 *275:13 9.18521e-06
8 *434:A *463:A4 2.25089e-06
9 *463:A2 *463:A4 3.65322e-06
*RES
1 *462:ZN *463:A4 40.8572 
*END

*D_NET *119 0.00104393
*CONN
*I *464:A4 I *D OR4_X2
*I *463:ZN O *D NAND4_X1
*CAP
1 *464:A4 8.30652e-06
2 *463:ZN 0.000371944
3 *119:10 0.000380251
4 *464:A4 *464:A3 2.39679e-06
5 *464:A4 *194:14 4.32144e-07
6 *119:10 *409:A1 4.08063e-05
7 *119:10 *152:45 4.1324e-06
8 *119:10 *176:10 1.59481e-05
9 *119:10 *194:14 9.17868e-06
10 *119:10 *203:8 2.94455e-05
11 *119:10 *268:9 0
12 *119:10 *275:13 7.72792e-06
13 *399:A4 *119:10 4.90581e-06
14 *412:A3 *119:10 7.90387e-05
15 *420:A4 *119:10 1.1397e-05
16 *463:A1 *119:10 4.88182e-06
17 *463:A2 *119:10 5.64879e-06
18 *79:8 *119:10 1.67624e-05
19 *85:27 *119:10 1.92792e-05
20 *86:8 *119:10 7.32662e-06
21 *86:10 *119:10 4.30618e-06
22 *92:8 *119:10 1.26253e-05
23 *97:6 *119:10 7.19036e-06
*RES
1 *463:ZN *119:10 49.6786 
2 *119:10 *464:A4 10.75 
*END

*D_NET *120 0.000634525
*CONN
*I *465:A4 I *D OR4_X4
*I *464:ZN O *D OR4_X2
*CAP
1 *465:A4 0.000232324
2 *464:ZN 0.000232324
3 *465:A4 *287:A3 4.6613e-07
4 *465:A4 *287:A4 9.46424e-06
5 *465:A4 *413:A 2.2287e-05
6 *465:A4 *415:A2 2.52965e-06
7 *465:A4 *465:A2 8.64288e-07
8 *465:A4 *159:12 1.21774e-06
9 *465:A4 *159:21 8.43376e-06
10 *465:A4 *165:32 0
11 *465:A4 *194:14 0
12 *465:A4 *220:8 1.62865e-05
13 *465:A4 *266:13 2.15927e-05
14 *399:A4 *465:A4 6.94902e-05
15 *412:A2 *465:A4 1.65162e-05
16 *412:A3 *465:A4 7.29164e-07
17 *416:A1 *465:A4 0
*RES
1 *464:ZN *465:A4 38.3929 
*END

*D_NET *121 0.00173461
*CONN
*I *466:A4 I *D NOR4_X4
*I *465:ZN O *D OR4_X4
*CAP
1 *466:A4 0.000377762
2 *465:ZN 0.000318847
3 *121:10 0.000696608
4 *466:A4 *493:A1 2.53771e-05
5 *466:A4 *122:10 1.90817e-05
6 *466:A4 *143:6 2.57547e-05
7 *466:A4 *217:12 0
8 *466:A4 *226:35 0
9 *466:A4 *254:45 0
10 *121:10 grant[25] 0
11 *121:10 *165:32 3.40167e-05
12 *121:10 *220:8 0
13 *292:A *121:10 0
14 *302:A4 *121:10 0
15 *307:A1 *466:A4 4.91133e-05
16 *307:A2 *466:A4 0
17 *307:A4 *466:A4 0
18 *314:A4 *121:10 0
19 *327:A4 *121:10 0
20 *334:A2 *121:10 5.52959e-06
21 *359:A2 *466:A4 2.64098e-06
22 *492:A2 *466:A4 5.51553e-05
23 *7:12 *466:A4 6.56341e-05
24 *7:14 *466:A4 1.26998e-05
25 *12:66 *466:A4 0
26 *15:14 *121:10 7.72537e-06
27 *15:27 *121:10 1.43807e-05
28 *39:8 *466:A4 0
29 *39:8 *121:10 2.42793e-05
*RES
1 *465:ZN *121:10 39.6072 
2 *121:10 *466:A4 49.5357 
*END

*D_NET *122 0.0014771
*CONN
*I *467:A3 I *D NAND3_X2
*I *466:ZN O *D NOR4_X4
*CAP
1 *467:A3 0
2 *466:ZN 3.55012e-05
3 *122:16 0.000304224
4 *122:10 0.000339725
5 *122:10 *254:45 0
6 *122:16 *206:19 0
7 *122:16 *214:14 0
8 *122:16 *215:8 5.11191e-06
9 *122:16 *216:8 0.000768209
10 *306:A2 *122:16 0
11 *466:A3 *122:10 0
12 *466:A4 *122:10 1.90817e-05
13 *467:A2 *122:16 2.23415e-06
14 *488:A1 *122:16 3.01743e-06
*RES
1 *466:ZN *122:10 13.6786 
2 *122:10 *122:16 48.5714 
3 *122:16 *467:A3 5 
*END

*D_NET *123 0.000202648
*CONN
*I *474:A2 I *D NOR3_X4
*I *469:ZN O *D INV_X1
*CAP
1 *474:A2 6.88139e-05
2 *469:ZN 6.88139e-05
3 *474:A2 *473:A2 1.47937e-05
4 *474:A2 *474:A3 0
5 *474:A2 *221:5 4.02344e-05
6 *474:A2 *257:13 9.99264e-06
*RES
1 *469:ZN *474:A2 28.75 
*END

*D_NET *124 0.000326957
*CONN
*I *504:A1 I *D AND4_X1
*I *472:A1 I *D NAND3_X1
*I *470:ZN O *D INV_X1
*CAP
1 *504:A1 5.17015e-06
2 *472:A1 1.25439e-05
3 *470:ZN 3.43541e-05
4 *124:8 5.20681e-05
5 *472:A1 *472:A2 2.39679e-06
6 *472:A1 *265:32 2.89018e-05
7 *472:A1 *276:33 7.19036e-06
8 *504:A1 *504:A2 7.19036e-06
9 *504:A1 *276:33 7.19036e-06
10 *124:8 *470:A 9.24246e-06
11 *124:8 *471:A 6.41837e-05
12 *124:8 *472:A2 2.42675e-05
13 *124:8 *265:32 1.66988e-05
14 *104:8 *472:A1 2.25089e-06
15 *104:14 *472:A1 2.89018e-05
16 *104:14 *124:8 2.4406e-05
*RES
1 *470:ZN *124:8 16.3571 
2 *124:8 *472:A1 12.3571 
3 *124:8 *504:A1 10.75 
*END

*D_NET *125 0.000269742
*CONN
*I *472:A2 I *D NAND3_X1
*I *471:ZN O *D INV_X1
*CAP
1 *472:A2 4.25622e-05
2 *471:ZN 4.25622e-05
3 *472:A2 *444:A1 2.43548e-06
4 *472:A2 *276:33 1.68643e-06
5 *472:A1 *472:A2 2.39679e-06
6 *504:A4 *472:A2 4.18985e-05
7 *104:8 *472:A2 2.39679e-06
8 *104:14 *472:A2 6.78899e-05
9 *106:19 *472:A2 4.16464e-05
10 *124:8 *472:A2 2.42675e-05
*RES
1 *471:ZN *472:A2 27.7857 
*END

*D_NET *126 0.000557468
*CONN
*I *473:A2 I *D NAND3_X2
*I *472:ZN O *D NAND3_X1
*CAP
1 *473:A2 0.000183347
2 *472:ZN 0.000183347
3 *473:A2 *195:12 6.54124e-05
4 *473:A2 *276:25 8.96184e-05
5 *473:A2 *281:22 1.81969e-05
6 *474:A2 *473:A2 1.47937e-05
7 *104:8 *473:A2 2.75346e-06
*RES
1 *472:ZN *473:A2 44.7857 
*END

*D_NET *127 0.00185951
*CONN
*I *474:A3 I *D NOR3_X4
*I *497:A1 I *D NAND3_X1
*I *473:ZN O *D NAND3_X2
*CAP
1 *474:A3 0.000147926
2 *497:A1 1.03101e-05
3 *473:ZN 0.000155362
4 *127:10 0.000448209
5 *127:8 0.000445335
6 *474:A3 *455:A1 4.07669e-05
7 *474:A3 *474:A1 0
8 *474:A3 *487:A1 3.42806e-05
9 *474:A3 *139:16 1.92742e-05
10 *497:A1 *497:A2 1.85634e-05
11 *497:A1 *156:20 1.32323e-05
12 *127:8 *139:16 1.40196e-06
13 *127:8 *285:12 0
14 *127:10 *138:10 0
15 *127:10 *154:8 0
16 *127:10 *156:20 1.56509e-05
17 *127:10 *173:16 0.000167891
18 *127:10 *217:10 5.5983e-05
19 *127:10 *218:8 3.58127e-05
20 *127:10 *225:25 6.39357e-05
21 *127:10 *225:31 5.44779e-05
22 *127:10 *265:15 2.94435e-05
23 *307:A3 *127:10 7.48003e-06
24 *474:A2 *474:A3 0
25 *499:B1 *127:10 0
26 *105:12 *127:10 9.41773e-05
*RES
1 *473:ZN *127:8 10.75 
2 *127:8 *127:10 54.5357 
3 *127:10 *497:A1 11.75 
4 *473:ZN *474:A3 36.2143 
*END

*D_NET *128 0.000144643
*CONN
*I *476:A1 I *D AND3_X2
*I *475:ZN O *D INV_X1
*CAP
1 *476:A1 2.83346e-05
2 *475:ZN 2.83346e-05
3 *476:A1 *304:A1 1.19738e-05
4 *476:A1 *304:A2 1.21774e-06
5 *476:A1 *476:A2 7.72537e-06
6 *476:A1 *223:41 2.94435e-05
7 *476:A1 *257:17 3.09002e-05
8 *109:12 *476:A1 6.71335e-06
*RES
1 *475:ZN *476:A1 25.0714 
*END

*D_NET *129 0.000834356
*CONN
*I *478:A I *D OAI21_X1
*I *477:ZN O *D OAI21_X1
*CAP
1 *478:A 0.000278027
2 *477:ZN 0.000278027
3 *478:A *299:A3 4.48636e-06
4 *478:A *342:A 3.80969e-05
5 *478:A *361:A1 1.87637e-06
6 *478:A *362:A1 5.44368e-05
7 *478:A *155:23 2.23535e-05
8 *478:A *183:25 0
9 *478:A *191:34 0
10 *478:A *245:28 3.66992e-05
11 *478:A *245:30 0.000104893
12 *344:A4 *478:A 0
13 *478:B1 *478:A 1.54598e-05
*RES
1 *477:ZN *478:A 45.6072 
*END

*D_NET *130 0.00084305
*CONN
*I *480:A3 I *D NOR4_X1
*I *478:ZN O *D OAI21_X1
*CAP
1 *480:A3 0
2 *478:ZN 0.000354143
3 *130:10 0.000354143
4 *130:10 *480:A1 1.59247e-05
5 *130:10 *480:A2 5.46179e-06
6 *130:10 *480:A4 1.32323e-05
7 *130:10 *505:A 9.62051e-07
8 *130:10 *155:14 0
9 *130:10 *155:23 0
10 *130:10 *173:16 5.22215e-05
11 *130:10 *181:16 0
12 *130:10 *191:26 0
13 *130:10 *225:31 8.95483e-06
14 *322:A2 *130:10 1.11799e-05
15 *18:8 *130:10 0
16 *30:14 *130:10 0
17 *52:8 *130:10 2.6828e-05
*RES
1 *478:ZN *130:10 45.9286 
2 *130:10 *480:A3 5 
*END

*D_NET *131 0.00128485
*CONN
*I *480:A4 I *D NOR4_X1
*I *479:ZN O *D OAI21_X1
*CAP
1 *480:A4 6.07591e-06
2 *479:ZN 0
3 *131:8 0.000353209
4 *131:6 0.000347133
5 *480:A4 *173:16 1.32323e-05
6 *131:8 *156:12 1.66588e-05
7 *131:8 *215:16 1.391e-05
8 *131:8 *223:27 0.000109016
9 *131:8 *223:33 6.73891e-05
10 *131:8 *285:10 0.000247984
11 *403:A2 *131:8 2.00057e-05
12 *461:B *131:8 0
13 *461:C1 *131:8 4.93851e-05
14 *466:A1 *131:8 2.76176e-05
15 *130:10 *480:A4 1.32323e-05
*RES
1 *479:ZN *131:6 10 
2 *131:6 *131:8 52.5 
3 *131:8 *480:A4 11.25 
*END

*D_NET *132 0.000674457
*CONN
*I *488:A2 I *D NAND3_X1
*I *480:ZN O *D NOR4_X1
*CAP
1 *488:A2 0.00012865
2 *480:ZN 0.00012865
3 *488:A2 *139:16 2.75346e-06
4 *488:A2 *223:33 6.81425e-05
5 *488:A2 *285:10 0.000310424
6 *488:A2 *285:12 1.18027e-05
7 *467:A2 *488:A2 0
8 *19:8 *488:A2 1.82068e-05
9 *19:14 *488:A2 5.39412e-06
10 *108:10 *488:A2 4.32144e-07
11 *110:10 *488:A2 0
*RES
1 *480:ZN *488:A2 42.8214 
*END

*D_NET *133 0.000196903
*CONN
*I *487:A3 I *D NOR4_X1
*I *481:ZN O *D NOR2_X1
*CAP
1 *487:A3 7.21317e-05
2 *481:ZN 7.21317e-05
3 *487:A3 *487:A2 3.04662e-05
4 *487:A3 *487:A4 1.32323e-05
5 *487:A3 *152:33 8.94115e-06
6 *487:A3 *285:12 0
7 *481:A1 *487:A3 0
*RES
1 *481:ZN *487:A3 19.4286 
*END

*D_NET *134 0.00041714
*CONN
*I *483:A I *D AOI21_X1
*I *482:ZN O *D OAI221_X1
*CAP
1 *483:A 7.89828e-05
2 *482:ZN 7.89828e-05
3 *483:A *163:18 2.25089e-06
4 *483:A *163:20 6.82202e-07
5 *483:A *178:31 2.77939e-05
6 *483:A *233:31 1.68643e-06
7 *483:A *266:9 1.72405e-05
8 *483:A *277:9 8.75251e-05
9 *408:A1 *483:A 1.76327e-05
10 *424:A3 *483:A 4.60341e-05
11 *482:A *483:A 1.27666e-06
12 *482:C1 *483:A 4.81397e-05
13 *482:C2 *483:A 2.61827e-06
14 *483:B2 *483:A 1.18232e-06
15 *85:27 *483:A 5.11118e-06
*RES
1 *482:ZN *483:A 41.9286 
*END

*D_NET *135 0.00151349
*CONN
*I *486:A2 I *D NAND4_X1
*I *483:ZN O *D AOI21_X1
*CAP
1 *486:A2 0.000193496
2 *483:ZN 0.000216372
3 *135:14 0.000409868
4 *486:A2 *301:A3 6.28291e-06
5 *486:A2 *137:12 2.52965e-06
6 *486:A2 *165:12 0.000115291
7 *486:A2 *206:23 1.28122e-06
8 *486:A2 *206:33 0.000121233
9 *486:A2 *260:17 0.000194954
10 *135:14 *152:39 0
11 *135:14 *164:8 6.48216e-07
12 *135:14 *164:20 7.76427e-05
13 *135:14 *165:16 2.80355e-05
14 *135:14 *186:20 1.66324e-05
15 *377:A1 *135:14 1.61803e-06
16 *490:B1 *135:14 7.19036e-06
17 *490:B2 *135:14 7.19036e-06
18 *5:16 *135:14 0
19 *34:10 *486:A2 8.48109e-05
20 *42:6 *486:A2 3.23723e-07
21 *85:12 *135:14 0
22 *94:10 *135:14 7.99575e-06
23 *94:23 *135:14 2.00919e-05
*RES
1 *483:ZN *135:14 39.0714 
2 *135:14 *486:A2 39.25 
*END

*D_NET *136 0.000426643
*CONN
*I *486:A3 I *D NAND4_X1
*I *484:ZN O *D OAI21_X1
*CAP
1 *486:A3 0.000151498
2 *484:ZN 0.000151498
3 *486:A3 *260:17 3.09411e-06
4 *384:A2 *486:A3 0
5 *458:A3 *486:A3 7.78623e-06
6 *479:A *486:A3 2.65559e-05
7 *498:B2 *486:A3 2.05644e-05
8 *7:41 *486:A3 6.49309e-05
9 *42:6 *486:A3 7.16188e-07
*RES
1 *484:ZN *486:A3 37.6429 
*END

*D_NET *137 0.00103295
*CONN
*I *486:A4 I *D NAND4_X1
*I *485:ZN O *D NOR2_X1
*CAP
1 *486:A4 0
2 *485:ZN 0.000171313
3 *137:12 0.000171313
4 *137:12 *282:43 2.38218e-06
5 *137:12 *282:47 0.000131487
6 *384:A1 *137:12 2.07848e-05
7 *486:A2 *137:12 2.52965e-06
8 *498:B2 *137:12 0.00015439
9 *42:6 *137:12 2.52965e-06
10 *49:14 *137:12 4.24402e-05
11 *60:51 *137:12 0.000333782
*RES
1 *485:ZN *137:12 45.1786 
2 *137:12 *486:A4 5 
*END

*D_NET *138 0.00219878
*CONN
*I *487:A4 I *D NOR4_X1
*I *486:ZN O *D NAND4_X1
*CAP
1 *487:A4 9.4366e-06
2 *486:ZN 5.17067e-05
3 *138:10 0.000601334
4 *138:8 0.000643604
5 *487:A4 *285:12 0
6 *138:8 *260:17 8.26924e-05
7 *138:10 *499:A 0.000371419
8 *138:10 *155:14 0
9 *138:10 *218:8 8.21848e-06
10 *138:10 *225:31 0
11 *138:10 *243:27 3.44218e-07
12 *458:A2 *138:10 0.000245726
13 *479:A *138:8 1.40406e-05
14 *487:A3 *487:A4 1.32323e-05
15 *499:B1 *138:10 4.93511e-05
16 *12:21 *138:10 4.12796e-06
17 *12:32 *138:10 1.40411e-05
18 *12:51 *138:10 3.14015e-05
19 *12:62 *138:10 2.25866e-05
20 *12:86 *138:10 3.34324e-06
21 *115:10 *138:10 3.21789e-05
22 *127:10 *138:10 0
*RES
1 *486:ZN *138:8 17.75 
2 *138:8 *138:10 73.5357 
3 *138:10 *487:A4 11.25 
*END

*D_NET *139 0.000740575
*CONN
*I *488:A3 I *D NAND3_X1
*I *487:ZN O *D NOR4_X1
*CAP
1 *488:A3 0
2 *487:ZN 0.000227292
3 *139:16 0.000227292
4 *139:16 *455:A1 5.56533e-05
5 *139:16 *487:A2 0
6 *139:16 *265:17 4.87067e-05
7 *139:16 *285:12 4.54411e-05
8 *446:A1 *139:16 0.000109692
9 *467:A2 *139:16 0
10 *473:A3 *139:16 1.18589e-06
11 *474:A3 *139:16 1.92742e-05
12 *488:A2 *139:16 2.75346e-06
13 *20:8 *139:16 0
14 *106:8 *139:16 1.88334e-06
15 *127:8 *139:16 1.40196e-06
*RES
1 *487:ZN *139:16 46.9643 
2 *139:16 *488:A3 5 
*END

*D_NET *140 9.35564e-05
*CONN
*I *491:A2 I *D NOR3_X1
*I *489:ZN O *D NOR2_X1
*CAP
1 *491:A2 1.74301e-05
2 *489:ZN 1.74301e-05
3 *491:A2 *183:21 9.26282e-06
4 *327:A2 *491:A2 1.88334e-06
5 *500:A2 *491:A2 4.24381e-05
6 *55:12 *491:A2 5.11191e-06
*RES
1 *489:ZN *491:A2 22.9643 
*END

*D_NET *141 0.00105299
*CONN
*I *491:A3 I *D NOR3_X1
*I *490:ZN O *D OAI21_X1
*CAP
1 *491:A3 0.000214102
2 *490:ZN 3.48785e-05
3 *141:10 0.000248981
4 *141:10 *165:16 1.47608e-05
5 *141:10 *230:21 0.000105156
6 *327:A3 *491:A3 4.9185e-06
7 *491:A1 *491:A3 6.66103e-05
8 *6:6 *491:A3 0
9 *66:6 *491:A3 0.000363586
*RES
1 *490:ZN *141:10 20.6786 
2 *141:10 *491:A3 38.75 
*END

*D_NET *142 0.000709309
*CONN
*I *497:A2 I *D NAND3_X1
*I *491:ZN O *D NOR3_X1
*CAP
1 *497:A2 0.000182821
2 *491:ZN 0.000182821
3 *497:A2 *497:A3 2.75346e-06
4 *497:A2 *152:35 0.000103543
5 *497:A2 *156:22 0.000174872
6 *497:A2 *217:12 0
7 *497:A1 *497:A2 1.85634e-05
8 *498:A *497:A2 1.82068e-05
9 *500:A2 *497:A2 3.69346e-06
10 *55:12 *497:A2 1.12238e-05
11 *66:6 *497:A2 7.9624e-06
12 *67:8 *497:A2 0
13 *94:10 *497:A2 2.84765e-06
*RES
1 *491:ZN *497:A2 45.1786 
*END

*D_NET *143 0.000419672
*CONN
*I *499:B2 I *D OAI21_X1
*I *493:A1 I *D NOR2_X1
*I *492:ZN O *D NAND2_X1
*CAP
1 *499:B2 1.45174e-05
2 *493:A1 7.4887e-05
3 *492:ZN 7.0986e-05
4 *143:6 0.00016039
5 *307:A1 *493:A1 3.71326e-05
6 *307:A1 *499:B2 1.76665e-06
7 *307:A1 *143:6 8.86004e-06
8 *466:A4 *493:A1 2.53771e-05
9 *466:A4 *143:6 2.57547e-05
10 *12:66 *143:6 0
*RES
1 *492:ZN *143:6 13.25 
2 *143:6 *493:A1 15.25 
3 *143:6 *499:B2 6.60714 
*END

*D_NET *144 0.000497262
*CONN
*I *496:A I *D AOI211_X1
*I *493:ZN O *D NOR2_X1
*CAP
1 *496:A 7.20333e-05
2 *493:ZN 7.20333e-05
3 *496:A *154:8 1.65449e-05
4 *496:A *156:20 9.62051e-07
5 *496:A *226:35 0.000259318
6 *493:A2 *496:A 1.77822e-05
7 *496:C1 *496:A 8.43215e-07
8 *116:12 *496:A 5.77444e-05
*RES
1 *493:ZN *496:A 34.5714 
*END

*D_NET *145 0.000245081
*CONN
*I *495:A2 I *D NAND3_X1
*I *494:ZN O *D INV_X1
*CAP
1 *495:A2 4.23954e-05
2 *494:ZN 4.23954e-05
3 *495:A2 *186:10 7.31355e-06
4 *495:A2 *226:35 5.38515e-05
5 *387:A1 *495:A2 3.38333e-05
6 *387:A3 *495:A2 7.19036e-06
7 *495:A1 *495:A2 2.39679e-06
8 *61:17 *495:A2 5.33077e-05
9 *71:27 *495:A2 2.39679e-06
*RES
1 *494:ZN *495:A2 26.9643 
*END

*D_NET *146 3.01606e-05
*CONN
*I *496:C2 I *D AOI211_X1
*I *495:ZN O *D NAND3_X1
*CAP
1 *496:C2 1.50803e-05
2 *495:ZN 1.50803e-05
*RES
1 *495:ZN *496:C2 11.6071 
*END

*D_NET *147 8.27174e-05
*CONN
*I *497:A3 I *D NAND3_X1
*I *496:ZN O *D AOI211_X1
*CAP
1 *497:A3 3.1778e-05
2 *496:ZN 3.1778e-05
3 *497:A3 *156:20 7.84765e-06
4 *496:C1 *497:A3 8.56027e-06
5 *497:A2 *497:A3 2.75346e-06
*RES
1 *496:ZN *497:A3 14.1786 
*END

*D_NET *148 0.000872398
*CONN
*I *499:A I *D OAI21_X1
*I *498:ZN O *D AOI221_X1
*CAP
1 *499:A 0.000191447
2 *498:ZN 0.000191447
3 *499:A *156:22 5.11118e-06
4 *499:A *218:8 7.3062e-05
5 *307:A1 *499:A 3.09143e-06
6 *318:A1 *499:A 2.52965e-06
7 *327:A2 *499:A 1.09818e-05
8 *499:B1 *499:A 1.72405e-05
9 *12:32 *499:A 6.06867e-06
10 *66:10 *499:A 0
11 *138:10 *499:A 0.000371419
*RES
1 *498:ZN *499:A 49.4286 
*END

*D_NET *149 0.000205299
*CONN
*I *503:A1 I *D AND4_X1
*I *502:ZN O *D INV_X1
*CAP
1 *503:A1 3.80286e-05
2 *502:ZN 3.80286e-05
3 *503:A1 *449:A1 7.72792e-06
4 *503:A1 *503:A2 7.19036e-06
5 *503:A1 *283:15 1.66988e-05
6 *503:A1 *284:11 0
7 *451:A2 *503:A1 6.81795e-05
8 *107:8 *503:A1 2.94455e-05
9 *109:12 *503:A1 0
*RES
1 *502:ZN *503:A1 25.75 
*END

*D_NET *150 0.000242298
*CONN
*I *506:A1 I *D AND4_X1
*I *505:ZN O *D INV_X1
*CAP
1 *506:A1 5.13595e-05
2 *505:ZN 5.13595e-05
3 *506:A1 *303:A2 7.97351e-05
4 *506:A1 *154:8 9.42163e-06
5 *506:A1 *191:26 1.77822e-05
6 *450:A1 *506:A1 6.54111e-06
7 *18:12 *506:A1 3.48838e-06
8 *116:12 *506:A1 2.26103e-05
*RES
1 *505:ZN *506:A1 28.1071 
*END

*D_NET *151 0.00511644
*CONN
*P grant[0] O
*I *310:ZN O *D NOR4_X2
*CAP
1 grant[0] 0.00130079
2 *310:ZN 0
3 *151:10 0.00130079
4 *151:8 0.000424092
5 *151:6 0.000424092
6 grant[0] *284:5 0.000813066
7 *151:8 *442:A 3.07768e-05
8 *151:8 *213:8 0.000628531
9 *151:8 *283:15 8.82995e-05
10 *451:A2 *151:8 3.57834e-05
11 *103:14 *151:8 4.78905e-05
12 *107:8 *151:8 2.2331e-05
*RES
1 *310:ZN *151:6 10 
2 *151:6 *151:8 67.4286 
3 *151:8 *151:10 5 
4 *151:10 grant[0] 173.036 
*END

*D_NET *152 0.00770987
*CONN
*P grant[10] O
*I *487:A2 I *D NOR4_X1
*I *476:ZN O *D AND3_X2
*CAP
1 grant[10] 2.95919e-05
2 *487:A2 4.22475e-05
3 *476:ZN 6.7129e-05
4 *152:49 0.000395703
5 *152:45 0.000665578
6 *152:39 0.000740702
7 *152:37 0.000441235
8 *152:35 0.000342244
9 *152:33 0.000404506
10 *152:18 0.00010451
11 *152:16 0.00028866
12 *152:10 0.000355789
13 grant[10] grant[29] 0
14 grant[10] *238:7 1.51678e-05
15 grant[10] *278:5 6.42887e-07
16 grant[10] *282:11 1.32914e-05
17 *487:A2 *455:A1 5.69552e-06
18 *487:A2 *487:A1 6.0887e-06
19 *152:10 *451:A1 7.19036e-06
20 *152:10 *502:A 4.6837e-06
21 *152:10 *214:10 0
22 *152:16 *454:A2 1.42933e-05
23 *152:16 *455:A1 0.000260332
24 *152:16 *455:A3 6.85774e-07
25 *152:16 *487:A1 2.74145e-06
26 *152:16 *214:10 7.95846e-05
27 *152:16 *281:9 0
28 *152:16 *282:57 6.00002e-05
29 *152:33 *455:A1 1.23e-05
30 *152:33 *170:17 0
31 *152:35 *349:A1 7.94852e-06
32 *152:35 *175:34 0.000266183
33 *152:35 *282:49 0.00118665
34 *152:39 *156:22 0
35 *152:39 *164:8 2.1384e-05
36 *152:39 *170:25 0.000172751
37 *152:39 *186:12 0
38 *152:39 *238:13 0
39 *152:45 *410:A2 2.6731e-05
40 *152:45 *203:8 0
41 *152:45 *208:10 8.33759e-07
42 *152:45 *210:12 0.000156573
43 *152:45 *268:9 8.41155e-06
44 *152:45 *271:9 9.07872e-06
45 *152:49 grant[29] 0
46 *152:49 *462:A 2.52965e-06
47 *152:49 *209:8 0
48 *152:49 *274:5 2.56243e-06
49 *152:49 *278:5 0.000204689
50 *152:49 *278:15 0
51 *152:49 *280:13 1.47097e-05
52 *291:A3 *152:39 1.28122e-06
53 *350:A2 *152:33 7.21335e-06
54 *350:A2 *152:35 5.38636e-06
55 *350:A3 *152:33 6.65423e-06
56 *398:A2 *152:39 1.43806e-05
57 *420:A4 *152:45 9.16428e-05
58 *421:A *152:45 1.95535e-06
59 *424:A3 *152:39 0
60 *451:A2 *152:10 7.11918e-06
61 *463:A1 *152:45 7.1624e-06
62 *463:A2 *152:45 4.16195e-06
63 *463:A3 *152:45 2.38139e-06
64 *467:A2 *152:16 1.14945e-05
65 *487:A3 *487:A2 3.04662e-05
66 *487:A3 *152:33 8.94115e-06
67 *497:A2 *152:35 0.000103543
68 *500:A2 *152:39 2.90397e-05
69 *5:14 *152:39 0.000108979
70 *5:16 *152:39 0.000106125
71 *5:20 *152:39 7.19036e-06
72 *40:30 *152:35 1.20127e-06
73 *40:41 *152:35 1.072e-05
74 *40:50 *152:35 2.66554e-06
75 *55:12 *152:35 5.99122e-05
76 *55:34 *152:35 2.4092e-05
77 *66:6 *152:39 0.000394671
78 *85:27 *152:39 8.24917e-06
79 *86:8 *152:45 0.000100524
80 *86:10 *152:45 2.96955e-05
81 *92:8 *152:45 1.10077e-05
82 *94:10 *152:35 7.47756e-06
83 *109:12 *152:10 4.50015e-05
84 *109:12 *152:16 3.78437e-06
85 *110:10 *152:16 9.99264e-06
86 *119:10 *152:45 4.1324e-06
87 *135:14 *152:39 0
88 *139:16 *487:A2 0
*RES
1 *476:ZN *152:10 13.6071 
2 *152:10 *152:16 49.0714 
3 *152:16 *152:18 5 
4 *152:18 *487:A2 11.1071 
5 *152:18 *152:33 12.75 
6 *152:33 *152:35 64.0357 
7 *152:35 *152:37 5 
8 *152:37 *152:39 65.75 
9 *152:39 *152:45 48.25 
10 *152:45 *152:49 47.3572 
11 *152:49 grant[10] 4.03572 
*END

*D_NET *153 0.00577875
*CONN
*P grant[11] O
*I *454:A2 I *D NOR3_X1
*I *452:ZN O *D AND2_X1
*CAP
1 grant[11] 1.05556e-05
2 *454:A2 2.93595e-05
3 *452:ZN 0
4 *153:12 0.00187707
5 *153:10 0.00186651
6 *153:8 0.000356773
7 *153:6 0.000356773
8 *153:4 2.93595e-05
9 grant[11] grant[13] 2.05033e-06
10 grant[11] grant[20] 4.20653e-06
11 grant[11] grant[36] 1.3917e-06
12 grant[11] *180:16 2.75346e-06
13 *153:8 *452:A1 0.00012041
14 *153:8 *157:8 8.49398e-05
15 *153:8 *221:9 7.86947e-05
16 *153:8 *222:17 1.40516e-05
17 *153:8 *223:33 0
18 *153:8 *255:21 0.000458616
19 *153:12 *154:12 0.000367367
20 *153:12 *213:12 0
21 *440:A3 *153:8 7.94852e-06
22 *452:A2 *153:8 2.08098e-06
23 *22:45 *153:8 3.41738e-05
24 *108:10 *153:8 2.08098e-06
25 *109:12 *454:A2 5.72902e-05
26 *152:16 *454:A2 1.42933e-05
*RES
1 *452:ZN *153:4 5 
2 *153:4 *153:6 5 
3 *153:6 *153:8 56.1429 
4 *153:8 *153:10 5 
5 *153:10 *153:12 67.83 
6 *153:12 grant[11] 11.2143 
7 *153:4 *454:A2 10.25 
*END

*D_NET *154 0.00467706
*CONN
*P grant[12] O
*I *506:ZN O *D AND4_X1
*CAP
1 grant[12] 8.35224e-06
2 *506:ZN 0
3 *154:12 0.00146172
4 *154:10 0.00145337
5 *154:8 0.000351528
6 *154:6 0.000351528
7 grant[12] grant[20] 2.19343e-06
8 grant[12] grant[36] 2.05033e-06
9 grant[12] *256:7 2.60945e-06
10 *154:8 *303:A1 7.88859e-05
11 *154:8 *303:A2 1.0884e-06
12 *154:8 *156:20 0
13 *154:8 *173:16 0
14 *154:8 *195:12 5.51848e-05
15 *154:8 *224:13 1.9695e-05
16 *154:8 *226:35 1.4293e-06
17 *154:8 *227:21 1.36837e-05
18 *154:12 *166:16 0.000200895
19 *307:A3 *154:8 2.90224e-06
20 *496:A *154:8 1.65449e-05
21 *506:A1 *154:8 9.42163e-06
22 *30:8 *154:8 4.06394e-05
23 *30:32 *154:8 6.88612e-06
24 *30:43 *154:8 5.77197e-06
25 *61:17 *154:8 4.76436e-07
26 *105:12 *154:8 1.63526e-06
27 *116:12 *154:8 0.000221193
28 *127:10 *154:8 0
29 *153:12 *154:12 0.000367367
*RES
1 *506:ZN *154:6 10 
2 *154:6 *154:8 47.6072 
3 *154:8 *154:10 5 
4 *154:10 *154:12 56.7 
5 *154:12 grant[12] 10.9286 
*END

*D_NET *155 0.00419402
*CONN
*P grant[13] O
*I *460:A1 I *D OR4_X2
*I *319:ZN O *D AND3_X2
*CAP
1 grant[13] 0.000449667
2 *460:A1 0
3 *319:ZN 0.000104488
4 *155:35 0.000640999
5 *155:27 0.000480831
6 *155:23 0.000422528
7 *155:14 0.000237519
8 grant[13] grant[14] 2.09788e-05
9 grant[13] *180:16 4.88094e-06
10 grant[13] *217:12 1.5125e-06
11 grant[13] *236:13 0.000294096
12 grant[13] *242:17 0.000280229
13 *155:14 *460:A2 2.75346e-06
14 *155:14 *191:26 7.72792e-06
15 *155:14 *191:30 1.43669e-05
16 *155:14 *225:25 6.20835e-05
17 *155:14 *225:31 2.94435e-05
18 *155:23 *362:A1 1.68643e-06
19 *155:23 *460:A2 4.71241e-05
20 *155:23 *460:A3 1.85634e-05
21 *155:23 *175:34 7.19036e-06
22 *155:27 *247:13 4.33329e-05
23 *155:35 *161:12 0
24 *155:35 *217:12 0.000369617
25 *155:35 *220:8 0.000369084
26 *155:35 *229:9 5.41015e-05
27 grant[11] grant[13] 2.05033e-06
28 *344:A3 *155:27 2.09671e-05
29 *344:A4 *155:23 2.19213e-05
30 *362:A2 *155:23 4.96432e-05
31 *460:A4 *155:14 6.85774e-07
32 *478:A *155:23 2.23535e-05
33 *6:19 *155:27 9.77674e-06
34 *6:34 *155:27 7.906e-05
35 *44:12 *155:27 1.55671e-05
36 *116:8 *155:14 7.19036e-06
37 *130:10 *155:14 0
38 *130:10 *155:23 0
39 *138:10 *155:14 0
*RES
1 *319:ZN *155:14 27.8214 
2 *155:14 *460:A1 5 
3 *155:14 *155:23 24.25 
4 *155:23 *155:27 36.4643 
5 *155:27 *155:35 47.7143 
6 *155:35 grant[13] 68.5357 
*END

*D_NET *156 0.00556121
*CONN
*P grant[14] O
*I *480:A1 I *D NOR4_X1
*I *321:ZN O *D NOR2_X1
*CAP
1 grant[14] 6.45075e-05
2 *480:A1 3.00769e-05
3 *321:ZN 2.19317e-05
4 *156:22 0.000758495
5 *156:20 0.000909946
6 *156:12 0.000397616
7 *156:8 0.000233666
8 grant[14] *217:12 2.35379e-05
9 grant[14] *235:13 3.12145e-06
10 grant[14] *236:9 8.66746e-06
11 grant[14] *239:7 1.13246e-05
12 grant[14] *273:9 7.83188e-05
13 *480:A1 *480:A2 1.21774e-06
14 *156:8 *215:8 1.87251e-05
15 *156:12 *215:8 2.80355e-05
16 *156:12 *285:10 1.06148e-05
17 *156:20 *218:8 1.04048e-06
18 *156:22 *180:16 0.000701735
19 *156:22 *217:12 0
20 *156:22 *236:13 0.000111112
21 *156:22 *238:13 0.000775811
22 grant[13] grant[14] 2.09788e-05
23 *322:A2 *480:A1 1.7898e-05
24 *326:A1 *156:22 0
25 *327:A2 *156:22 0.000126734
26 *327:A3 *156:22 1.19839e-05
27 *327:A4 *156:22 1.25976e-05
28 *457:B *156:20 0
29 *466:A1 *156:20 7.72537e-06
30 *466:A2 *156:20 3.88147e-05
31 *489:A1 *156:22 4.169e-05
32 *496:A *156:20 9.62051e-07
33 *496:C1 *156:20 0
34 *497:A1 *156:20 1.32323e-05
35 *497:A2 *156:22 0.000174872
36 *497:A3 *156:20 7.84765e-06
37 *499:A *156:22 5.11118e-06
38 *6:6 *156:22 0.000195479
39 *6:19 *156:22 6.03627e-05
40 *12:32 *156:22 0
41 *19:14 *156:8 8.34091e-06
42 *19:14 *156:12 5.04104e-05
43 *52:10 *156:12 0.00052843
44 *67:8 *156:22 0
45 *127:10 *156:20 1.56509e-05
46 *130:10 *480:A1 1.59247e-05
47 *131:8 *156:12 1.66588e-05
48 *152:39 *156:22 0
49 *154:8 *156:20 0
*RES
1 *321:ZN *156:8 12.9643 
2 *156:8 *156:12 37.1429 
3 *156:12 *156:20 34.0357 
4 *156:20 *156:22 126.25 
5 *156:22 grant[14] 19.3571 
6 *156:8 *480:A1 14.25 
*END

*D_NET *157 0.00689977
*CONN
*P grant[15] O
*I *323:ZN O *D INV_X1
*CAP
1 grant[15] 0.00116625
2 *323:ZN 0
3 *157:10 0.00116625
4 *157:8 0.000583622
5 *157:6 0.000583622
6 grant[15] grant[24] 2.05033e-06
7 grant[15] grant[35] 0.000256963
8 grant[15] grant[44] 0
9 grant[15] index[0] 0
10 grant[15] *296:A1 0
11 grant[15] *261:5 0
12 grant[15] *281:5 0.000573101
13 *157:8 *295:A1 2.55846e-05
14 *157:8 *295:A3 1.07633e-05
15 *157:8 *295:A4 4.11958e-05
16 *157:8 *162:8 0
17 *157:8 *185:8 0.00125103
18 *157:8 *223:27 0
19 *157:8 *223:33 2.58538e-06
20 *157:8 *255:21 0.00114257
21 *157:8 *256:19 9.24246e-06
22 *153:8 *157:8 8.49398e-05
*RES
1 *323:ZN *157:6 10 
2 *157:6 *157:8 109.5 
3 *157:8 *157:10 5 
4 *157:10 grant[15] 160.536 
*END

*D_NET *158 0.00587013
*CONN
*P grant[16] O
*I *315:ZN O *D AND4_X1
*CAP
1 grant[16] 0.000415856
2 *315:ZN 7.19997e-06
3 *158:12 0.000415856
4 *158:10 0.000744385
5 *158:8 0.000751585
6 grant[16] grant[38] 0.000359879
7 grant[16] *237:5 2.20269e-05
8 grant[16] *267:5 0.00031604
9 *158:8 *160:8 5.52692e-06
10 *158:8 *191:34 1.32323e-05
11 *158:10 *298:A3 1.39047e-05
12 *158:10 *312:A1 7.18184e-06
13 *158:10 *332:A1 1.04109e-06
14 *158:10 *159:23 0.0011874
15 *158:10 *161:10 0.000177301
16 *158:10 *161:12 0.00122675
17 *158:10 *169:18 4.67796e-05
18 *158:10 *202:12 1.62341e-05
19 *158:10 *238:17 0
20 *158:10 *272:13 2.79274e-05
21 *331:A2 *158:10 3.02376e-05
22 *2:10 *158:10 8.83266e-06
23 *25:12 *158:10 5.47604e-05
24 *27:14 *158:10 2.01911e-05
*RES
1 *315:ZN *158:8 11.25 
2 *158:8 *158:10 121.714 
3 *158:10 *158:12 5 
4 *158:12 grant[16] 74.0357 
*END

*D_NET *159 0.005055
*CONN
*P grant[17] O
*I *465:A1 I *D OR4_X4
*I *329:ZN O *D AND3_X1
*CAP
1 grant[17] 0.000382088
2 *465:A1 0
3 *329:ZN 0.000230825
4 *159:25 0.000382088
5 *159:23 0.000365014
6 *159:21 0.000378741
7 *159:12 0.000244553
8 grant[17] grant[19] 0.000108855
9 grant[17] grant[29] 3.4798e-05
10 grant[17] grant[33] 2.05033e-06
11 grant[17] grant[47] 1.28122e-06
12 grant[17] *288:A1 1.87418e-05
13 grant[17] *177:12 8.61033e-05
14 grant[17] *177:20 0.000527505
15 grant[17] *180:8 4.41389e-05
16 grant[17] *279:13 0.000335922
17 grant[17] *279:23 5.64011e-05
18 *159:12 *465:A3 3.43708e-05
19 *159:12 *477:B2 4.37715e-05
20 *159:12 *165:16 1.57832e-05
21 *159:12 *165:32 7.99933e-06
22 *159:12 *220:8 0
23 *159:12 *230:21 6.494e-05
24 *159:12 *230:32 9.26282e-06
25 *159:12 *230:43 1.90574e-06
26 *159:21 *465:A2 1.82068e-05
27 *159:21 *165:32 1.18232e-06
28 *159:23 *289:A1 5.86754e-06
29 *159:23 *272:13 3.07297e-05
30 *159:23 *274:13 2.37117e-05
31 *159:23 *274:22 5.10087e-06
32 *159:23 *274:33 4.80268e-06
33 *159:23 *275:38 7.94852e-06
34 *329:A2 *159:12 1.65484e-05
35 *377:A1 *159:23 0.000129538
36 *432:A2 *159:23 6.77571e-05
37 *465:A4 *159:12 1.21774e-06
38 *465:A4 *159:21 8.43376e-06
39 *2:10 *159:23 4.23347e-05
40 *4:8 *159:23 3.13932e-05
41 *4:19 *159:23 5.03183e-05
42 *4:30 *159:23 2.89254e-05
43 *27:20 *159:12 1.64447e-05
44 *158:10 *159:23 0.0011874
*RES
1 *329:ZN *159:12 42.75 
2 *159:12 *465:A1 5 
3 *159:12 *159:21 7.25 
4 *159:21 *159:23 64.7143 
5 *159:23 *159:25 5 
6 *159:25 grant[17] 74.5357 
*END

*D_NET *160 0.00265657
*CONN
*P grant[18] O
*I *331:ZN O *D NOR2_X1
*CAP
1 grant[18] 0.000374591
2 *331:ZN 0.000127981
3 *160:16 0.000740228
4 *160:8 0.000493617
5 grant[18] grant[20] 1.60038e-06
6 grant[18] grant[8] 2.60945e-06
7 grant[18] index[5] 2.60945e-06
8 grant[18] *464:A3 5.60444e-05
9 grant[18] *194:23 0.000318584
10 grant[18] *197:23 2.69813e-05
11 grant[18] *201:21 3.55218e-05
12 grant[18] *220:8 3.25815e-05
13 grant[18] *268:5 0
14 *160:8 grant[46] 0.000233319
15 *160:8 *191:34 1.90208e-06
16 *160:8 *231:24 2.97531e-05
17 *160:8 *243:5 1.36959e-06
18 *160:8 *243:11 9.58267e-05
19 *160:16 *464:A2 1.52083e-06
20 *160:16 *176:10 0
21 *160:16 *194:14 9.85721e-07
22 *160:16 *268:9 6.84524e-07
23 *412:A2 *160:16 2.99387e-05
24 *412:A3 *160:16 4.27924e-05
25 *158:8 *160:8 5.52692e-06
*RES
1 *331:ZN *160:8 33.75 
2 *160:8 *160:16 38.6429 
3 *160:16 grant[18] 50.5357 
*END

*D_NET *161 0.00461939
*CONN
*P grant[19] O
*I *465:A2 I *D OR4_X4
*I *332:ZN O *D AND2_X1
*CAP
1 grant[19] 0.000387513
2 *465:A2 2.02699e-05
3 *332:ZN 7.81258e-05
4 *161:14 0.000387513
5 *161:12 0.000384884
6 *161:10 0.00048328
7 grant[19] grant[47] 0.000349974
8 grant[19] *288:A1 1.92742e-05
9 grant[19] *177:20 0.000528572
10 *465:A2 *165:32 1.15252e-05
11 *161:10 grant[25] 0
12 *161:10 *169:18 1.06008e-05
13 *161:10 *254:17 1.80259e-05
14 *161:12 *164:20 0.000174647
15 *161:12 *180:12 7.27329e-06
16 *161:12 *202:12 0.00020682
17 grant[17] grant[19] 0.000108855
18 *465:A4 *465:A2 8.64288e-07
19 *85:12 *161:12 1.91164e-05
20 *155:35 *161:12 0
21 *158:10 *161:10 0.000177301
22 *158:10 *161:12 0.00122675
23 *159:21 *465:A2 1.82068e-05
*RES
1 *332:ZN *161:10 21.5 
2 *161:10 *161:12 66.75 
3 *161:12 *161:14 5 
4 *161:14 grant[19] 73.5357 
5 *161:10 *465:A2 12.75 
*END

*D_NET *162 0.00615389
*CONN
*P grant[1] O
*I *441:ZN O *D INV_X1
*CAP
1 grant[1] 1.30134e-05
2 *441:ZN 0
3 *162:12 0.001637
4 *162:10 0.00162399
5 *162:8 0.000227921
6 *162:6 0.000227921
7 grant[1] *238:7 2.05033e-06
8 grant[1] *252:17 3.06803e-06
9 grant[1] *283:9 2.60945e-06
10 *162:8 *295:A1 2.89028e-05
11 *162:8 *295:A2 0.000106872
12 *162:8 *187:8 1.82236e-05
13 *162:8 *222:17 0.00050364
14 *162:8 *256:19 0
15 *162:8 *257:21 0.000584383
16 *162:8 *257:23 2.96955e-05
17 *162:8 *257:25 0.000145183
18 *162:12 *283:11 0.000991389
19 *379:A3 *162:8 3.0359e-06
20 *479:B2 *162:8 4.76429e-07
21 *72:23 *162:8 1.61429e-06
22 *73:10 *162:8 2.90224e-06
23 *157:8 *162:8 0
*RES
1 *441:ZN *162:6 10 
2 *162:6 *162:8 50.5 
3 *162:8 *162:10 5 
4 *162:10 *162:12 69.3 
5 *162:12 grant[1] 11.4286 
*END

*D_NET *163 0.00324379
*CONN
*P grant[20] O
*I *328:ZN O *D AND4_X1
*CAP
1 grant[20] 0.000193206
2 *328:ZN 0.000215293
3 *163:20 0.000575989
4 *163:18 0.000598076
5 grant[20] grant[45] 2.99044e-06
6 grant[20] grant[8] 5.18067e-06
7 grant[20] *166:16 5.43778e-06
8 grant[20] *252:17 0.000453633
9 grant[20] *268:5 6.9213e-06
10 *163:18 *337:A1 7.34199e-06
11 *163:18 *164:20 8.02805e-05
12 *163:18 *233:31 7.16188e-07
13 *163:18 *233:41 2.33537e-05
14 *163:20 grant[34] 3.23723e-07
15 *163:20 grant[49] 1.98659e-05
16 *163:20 *409:A1 5.51502e-05
17 *163:20 *409:A2 4.12459e-06
18 *163:20 *178:31 1.89654e-05
19 *163:20 *233:15 0.000437775
20 *163:20 *233:31 1.73916e-05
21 *163:20 *276:9 0.000105168
22 grant[11] grant[20] 4.20653e-06
23 grant[12] grant[20] 2.19343e-06
24 grant[18] grant[20] 1.60038e-06
25 *408:A1 *163:18 0.000105231
26 *408:A2 *163:18 1.90208e-06
27 *423:A2 *163:18 1.19839e-05
28 *482:C2 *163:20 0
29 *483:A *163:18 2.25089e-06
30 *483:A *163:20 6.82202e-07
31 *483:B2 *163:18 2.25089e-06
32 *5:10 *163:20 9.29929e-05
33 *94:10 *163:18 5.44302e-05
34 *94:23 *163:18 0.000136885
*RES
1 *328:ZN *163:18 48.1429 
2 *163:18 *163:20 60.25 
3 *163:20 grant[20] 36.2143 
*END

*D_NET *164 0.0039747
*CONN
*P grant[21] O
*I *465:A3 I *D OR4_X4
*I *337:ZN O *D AND3_X1
*CAP
1 grant[21] 8.15595e-05
2 *465:A3 0.00018496
3 *337:ZN 5.25359e-05
4 *164:22 0.000522883
5 *164:20 0.000589372
6 *164:8 0.000385545
7 grant[21] grant[3] 1.99813e-05
8 grant[21] grant[52] 2.05033e-06
9 grant[21] grant[5] 2.05033e-06
10 grant[21] *222:11 7.63742e-06
11 grant[21] *252:17 2.12336e-05
12 *465:A3 *165:16 0.000354935
13 *465:A3 *165:32 1.60038e-06
14 *465:A3 *220:8 0
15 *164:8 *186:12 8.48223e-05
16 *164:20 *165:16 0.000115295
17 *164:20 *180:12 1.62084e-05
18 *164:20 *186:20 9.55059e-06
19 *164:20 *202:12 4.99498e-05
20 *164:20 *233:41 6.37281e-06
21 *164:22 grant[9] 0
22 *164:22 *222:11 7.72537e-06
23 *164:22 *226:5 0.000678305
24 *164:22 *235:17 0.00014883
25 *164:22 *273:45 3.23354e-05
26 *408:A2 *164:20 3.18741e-05
27 *419:A1 *164:22 1.80284e-05
28 *3:47 *164:22 0.000115002
29 *84:12 *164:20 4.43172e-05
30 *85:12 *164:20 7.66675e-07
31 *94:10 *164:8 0
32 *135:14 *164:8 6.48216e-07
33 *135:14 *164:20 7.76427e-05
34 *152:39 *164:8 2.1384e-05
35 *159:12 *465:A3 3.43708e-05
36 *161:12 *164:20 0.000174647
37 *163:18 *164:20 8.02805e-05
*RES
1 *337:ZN *164:8 18.75 
2 *164:8 *164:20 39.8572 
3 *164:20 *164:22 72.75 
4 *164:22 grant[21] 18.25 
5 *164:8 *465:A3 34 
*END

*D_NET *165 0.00384494
*CONN
*P grant[22] O
*I *340:ZN O *D INV_X1
*CAP
1 grant[22] 1.14691e-05
2 *340:ZN 0.000203684
3 *165:34 0.00044494
4 *165:32 0.000633118
5 *165:16 0.000435616
6 *165:12 0.000439653
7 grant[22] *235:13 1.3917e-06
8 grant[22] *268:5 2.60945e-06
9 *165:12 *339:A2 2.1173e-05
10 *165:12 *206:33 2.11458e-06
11 *165:12 *226:23 0.000179679
12 *165:12 *235:25 3.84674e-05
13 *165:16 *230:21 1.72234e-05
14 *165:32 grant[25] 0
15 *165:32 *287:A2 7.72537e-06
16 *165:32 *287:A3 2.4554e-05
17 *165:32 *287:A4 1.68643e-06
18 *165:32 *397:A1 1.76665e-06
19 *165:32 *397:A2 6.82202e-07
20 *165:32 *413:A 0
21 *165:32 *264:30 1.0303e-05
22 *165:32 *267:25 7.72792e-06
23 *165:34 grant[25] 9.63487e-05
24 *165:34 *464:A3 0
25 *165:34 *235:13 2.35353e-05
26 *165:34 *263:17 8.72279e-05
27 *165:34 *264:30 4.02344e-05
28 *165:34 *268:5 0.000113928
29 *399:A2 *165:32 8.37618e-06
30 *399:A3 *165:32 3.09411e-06
31 *412:A1 *165:34 3.5795e-05
32 *412:A2 *165:32 3.65322e-06
33 *412:A2 *165:34 1.91954e-06
34 *456:C2 *165:12 3.33088e-06
35 *465:A2 *165:32 1.15252e-05
36 *465:A3 *165:16 0.000354935
37 *465:A3 *165:32 1.60038e-06
38 *465:A4 *165:32 0
39 *486:A2 *165:12 0.000115291
40 *2:10 *165:32 8.34007e-05
41 *34:10 *165:12 8.53485e-05
42 *42:6 *165:12 3.77093e-05
43 *84:12 *165:16 3.50334e-05
44 *121:10 *165:32 3.40167e-05
45 *135:14 *165:16 2.80355e-05
46 *141:10 *165:16 1.47608e-05
47 *159:12 *165:16 1.57832e-05
48 *159:12 *165:32 7.99933e-06
49 *159:21 *165:32 1.18232e-06
50 *164:20 *165:16 0.000115295
*RES
1 *340:ZN *165:12 45.4286 
2 *165:12 *165:16 38.5 
3 *165:16 *165:32 34.5357 
4 *165:32 *165:34 59.75 
5 *165:34 grant[22] 1.46429 
*END

*D_NET *166 0.00317704
*CONN
*P grant[23] O
*I *341:ZN O *D AND2_X1
*CAP
1 grant[23] 3.84249e-06
2 *341:ZN 0.000104932
3 *166:16 0.00118057
4 *166:10 0.00128166
5 grant[23] grant[27] 1.3917e-06
6 grant[23] *170:25 2.39679e-06
7 grant[23] *253:7 2.05033e-06
8 *166:10 *226:23 7.64942e-06
9 *166:10 *241:9 0.000304139
10 *166:10 *248:13 0
11 *166:10 *260:9 9.38013e-06
12 *166:16 *186:20 5.47115e-05
13 *166:16 *190:12 0
14 grant[20] *166:16 5.43778e-06
15 *36:19 *166:10 1.79726e-05
16 *154:12 *166:16 0.000200895
*RES
1 *341:ZN *166:10 31.4286 
2 *166:10 *166:16 48.0357 
3 *166:16 grant[23] 5.53571 
*END

*D_NET *167 0.00498401
*CONN
*P grant[24] O
*I *336:ZN O *D AND4_X1
*CAP
1 grant[24] 3.66782e-06
2 *336:ZN 5.61035e-05
3 *167:22 0.00112955
4 *167:14 0.0024145
5 *167:12 0.00134472
6 grant[24] grant[35] 2.60945e-06
7 *167:12 *300:A3 9.58352e-06
8 *167:12 *240:9 1.83151e-05
9 grant[15] grant[24] 2.05033e-06
10 *336:A3 *167:12 2.90101e-06
*RES
1 *336:ZN *167:12 24.2143 
2 *167:12 *167:14 54.39 
3 *167:14 *167:22 49.4814 
4 *167:22 grant[24] 5.53571 
*END

*D_NET *168 0.00401802
*CONN
*P grant[25] O
*I *460:A2 I *D OR4_X2
*I *346:ZN O *D AND4_X1
*CAP
1 grant[25] 0.000767288
2 *460:A2 8.2251e-05
3 *346:ZN 0.000148111
4 *168:12 0.000923732
5 *168:8 0.000386805
6 grant[25] grant[26] 0.000329204
7 grant[25] *287:A4 4.32144e-07
8 grant[25] *332:A1 2.14856e-06
9 grant[25] *397:A2 1.39839e-06
10 grant[25] *235:13 1.10432e-05
11 grant[25] *254:17 0
12 grant[25] *263:17 0.000218917
13 grant[25] *267:25 0
14 *460:A2 *460:A3 1.8031e-05
15 *460:A2 *175:34 7.19036e-06
16 *460:A2 *191:30 4.20654e-05
17 *168:12 *362:A1 2.74864e-05
18 *168:12 *183:21 8.12179e-05
19 *314:A1 grant[25] 2.43548e-06
20 *314:A1 *168:12 2.94455e-05
21 *314:A2 grant[25] 0.000196952
22 *335:A3 *168:12 7.8888e-05
23 *344:A4 *460:A2 1.26998e-05
24 *349:A3 *168:8 9.25896e-05
25 *460:A4 *460:A2 1.21774e-06
26 *2:10 grant[25] 0
27 *27:8 grant[25] 3.25684e-05
28 *39:8 grant[25] 0.000146871
29 *40:8 *168:12 5.89043e-05
30 *40:19 *168:12 3.426e-05
31 *40:30 *168:8 4.12796e-06
32 *40:30 *168:12 1.48912e-05
33 *40:41 *168:8 7.927e-05
34 *40:50 *168:8 5.11191e-06
35 *45:12 *168:8 6.44376e-06
36 *78:12 grant[25] 2.77939e-05
37 *121:10 grant[25] 0
38 *155:14 *460:A2 2.75346e-06
39 *155:23 *460:A2 4.71241e-05
40 *161:10 grant[25] 0
41 *165:32 grant[25] 0
42 *165:34 grant[25] 9.63487e-05
*RES
1 *346:ZN *168:8 27.8929 
2 *168:8 *168:12 26.9643 
3 *168:12 grant[25] 111.036 
4 *168:8 *460:A2 22.4286 
*END

*D_NET *169 0.00364901
*CONN
*P grant[26] O
*I *349:ZN O *D NOR3_X1
*CAP
1 grant[26] 0.000582164
2 *349:ZN 0.000309009
3 *169:18 0.000909393
4 *169:12 0.000636237
5 grant[26] grant[28] 2.60945e-06
6 grant[26] grant[2] 0
7 grant[26] *232:11 3.82997e-06
8 grant[26] *254:17 0
9 *169:12 *300:A4 4.77786e-06
10 *169:12 *336:A1 2.70833e-06
11 *169:12 *170:6 0
12 *169:12 *170:15 0
13 *169:12 *170:17 0
14 *169:12 *237:13 7.49745e-06
15 *169:12 *239:17 8.64288e-07
16 *169:12 *239:23 4.32144e-07
17 *169:12 *240:36 2.89658e-05
18 *169:12 *240:38 1.11753e-05
19 *169:12 *240:44 3.83453e-06
20 *169:12 *245:5 0.000252153
21 *169:18 *312:A1 0.00011763
22 *169:18 *204:10 0
23 *169:18 *229:9 0
24 *169:18 *231:9 0.000293883
25 grant[25] grant[26] 0.000329204
26 *336:A3 *169:12 2.97556e-05
27 *336:A4 *169:12 4.85224e-05
28 *349:A2 *169:12 1.40335e-05
29 *25:12 *169:18 2.94802e-06
30 *158:10 *169:18 4.67796e-05
31 *161:10 *169:18 1.06008e-05
*RES
1 *349:ZN *169:12 48.3929 
2 *169:12 *169:18 48.9286 
3 *169:18 grant[26] 72.0357 
*END

*D_NET *170 0.00544956
*CONN
*P grant[27] O
*I *455:A1 I *D NOR3_X1
*I *350:ZN O *D AND3_X1
*CAP
1 grant[27] 1.14691e-05
2 *455:A1 0.000177427
3 *350:ZN 1.50803e-05
4 *170:25 0.000550812
5 *170:23 0.000539343
6 *170:21 0.000434723
7 *170:19 0.000434723
8 *170:17 0.000354912
9 *170:15 0.000376359
10 *170:6 0.000213955
11 grant[27] grant[30] 2.60945e-06
12 *455:A1 *455:A3 1.21774e-06
13 *455:A1 *487:A1 2.11458e-06
14 *455:A1 *282:53 9.26943e-06
15 *170:17 *212:28 0.000238321
16 *170:17 *237:13 0
17 *170:17 *245:5 0
18 *170:17 *282:53 2.42461e-05
19 *170:21 *397:A2 5.48932e-05
20 *170:21 *413:A 1.29563e-05
21 *170:21 *196:8 0.000657898
22 *170:21 *204:10 0.000145962
23 *170:21 *266:24 7.78057e-05
24 *170:21 *267:13 3.61066e-05
25 *170:21 *277:9 6.52372e-05
26 *170:25 grant[30] 5.36167e-05
27 *170:25 *422:A 7.19036e-06
28 *170:25 *424:A1 7.19036e-06
29 *170:25 *200:8 9.80891e-05
30 *170:25 *238:13 0
31 *170:25 *253:7 2.73238e-06
32 *170:25 *256:7 0
33 grant[23] grant[27] 1.3917e-06
34 grant[23] *170:25 2.39679e-06
35 *336:A2 *170:17 8.64288e-07
36 *336:A4 *170:17 0.00017169
37 *349:A2 *170:6 0
38 *350:A3 *170:17 8.94571e-06
39 *398:A2 *170:25 2.04932e-05
40 *415:A3 *170:21 8.48929e-05
41 *424:A3 *170:25 0
42 *446:A1 *455:A1 2.61469e-06
43 *467:A2 *455:A1 1.11435e-06
44 *474:A3 *455:A1 4.07669e-05
45 *483:B1 *170:21 1.39582e-06
46 *487:A2 *455:A1 5.69552e-06
47 *85:27 *170:25 0
48 *139:16 *455:A1 5.56533e-05
49 *152:16 *455:A1 0.000260332
50 *152:33 *455:A1 1.23e-05
51 *152:33 *170:17 0
52 *152:39 *170:25 0.000172751
53 *169:12 *170:6 0
54 *169:12 *170:15 0
55 *169:12 *170:17 0
*RES
1 *350:ZN *170:6 6.60714 
2 *170:6 *455:A1 34.25 
3 *170:6 *170:15 2.28572 
4 *170:15 *170:17 52.25 
5 *170:17 *170:19 5 
6 *170:19 *170:21 67.4286 
7 *170:21 *170:23 5 
8 *170:23 *170:25 65.25 
9 *170:25 grant[27] 1.46429 
*END

*D_NET *171 0.00372278
*CONN
*P grant[28] O
*I *344:ZN O *D AND4_X1
*CAP
1 grant[28] 3.81708e-05
2 *344:ZN 0.00010954
3 *171:12 0.000498443
4 *171:10 0.000569812
5 grant[28] *232:11 9.99885e-06
6 grant[28] *252:13 6.03486e-06
7 *171:10 *299:A3 5.64001e-06
8 *171:10 *299:A4 8.70497e-06
9 *171:10 *241:9 0.000279969
10 *171:10 *242:21 3.0428e-05
11 *171:10 *242:32 1.44264e-05
12 *171:10 *247:13 1.08425e-05
13 *171:12 grant[2] 0.00106915
14 *171:12 grant[31] 0.00106861
15 grant[26] grant[28] 2.60945e-06
16 *15:8 *171:10 4.025e-07
*RES
1 *344:ZN *171:10 32.8929 
2 *171:10 *171:12 99.75 
3 *171:12 grant[28] 14.1786 
*END

*D_NET *172 0.00436254
*CONN
*P grant[29] O
*I *357:ZN O *D INV_X1
*CAP
1 grant[29] 0.00086071
2 *357:ZN 0
3 *172:14 0.00109081
4 *172:8 0.000603886
5 *172:6 0.000373791
6 grant[29] grant[33] 2.05033e-06
7 grant[29] *288:A2 1.32348e-05
8 grant[29] *438:A 7.72537e-06
9 grant[29] *485:A1 4.83909e-05
10 grant[29] *485:A2 7.19036e-06
11 grant[29] *177:12 0.000317599
12 grant[29] *178:23 0.00012042
13 grant[29] *180:8 9.59089e-06
14 grant[29] *209:8 2.57828e-05
15 grant[29] *238:7 0
16 grant[29] *279:13 8.51924e-05
17 grant[29] *279:23 4.20231e-06
18 grant[29] *279:27 6.82202e-07
19 grant[29] *280:45 8.61743e-06
20 grant[29] *280:57 0.000120525
21 grant[29] *283:9 2.60945e-06
22 *172:8 *403:A1 0.000178832
23 *172:8 *206:19 0
24 *172:8 *216:8 0.000305884
25 *172:14 *180:8 6.06626e-05
26 *172:14 *192:18 0
27 grant[10] grant[29] 0
28 grant[17] grant[29] 3.4798e-05
29 *297:A1 *172:14 0
30 *297:A2 *172:8 0
31 *297:A2 *172:14 0
32 *368:A1 grant[29] 3.03823e-06
33 *368:A1 *172:14 3.36873e-05
34 *368:A2 *172:14 2.25089e-06
35 *368:A3 *172:14 1.19839e-05
36 *428:A1 grant[29] 0
37 *462:B1 grant[29] 4.12459e-06
38 *7:51 grant[29] 1.94929e-05
39 *60:51 grant[29] 0
40 *100:14 grant[29] 4.78054e-06
41 *152:49 grant[29] 0
*RES
1 *357:ZN *172:6 10 
2 *172:6 *172:8 51.8214 
3 *172:8 *172:14 33.5357 
4 *172:14 grant[29] 122.679 
*END

*D_NET *173 0.0049675
*CONN
*P grant[2] O
*I *480:A2 I *D NOR4_X1
*I *468:ZN O *D AND3_X1
*CAP
1 grant[2] 0.000723532
2 *480:A2 2.76393e-05
3 *468:ZN 9.75266e-05
4 *173:16 0.000965032
5 *173:8 0.000366666
6 grant[2] grant[31] 6.58597e-05
7 grant[2] *232:11 8.6104e-06
8 grant[2] *232:13 2.76994e-06
9 grant[2] *254:17 0.000652185
10 grant[2] *254:23 6.44653e-05
11 grant[2] *254:33 0.000218578
12 *173:8 *232:25 0
13 *173:8 *255:19 0
14 *173:16 *255:19 0
15 grant[26] grant[2] 0
16 *307:A3 *173:16 6.32202e-06
17 *453:A *173:8 0
18 *480:A1 *480:A2 1.21774e-06
19 *480:A4 *173:16 1.32323e-05
20 *13:31 grant[2] 3.80969e-05
21 *17:23 grant[2] 0.000156409
22 *52:8 *173:16 0.000223008
23 *105:12 *173:16 4.16269e-05
24 *127:10 *173:16 0.000167891
25 *130:10 *480:A2 5.46179e-06
26 *130:10 *173:16 5.22215e-05
27 *154:8 *173:16 0
28 *171:12 grant[2] 0.00106915
*RES
1 *468:ZN *173:8 14.3571 
2 *173:8 *173:16 45.8214 
3 *173:16 grant[2] 131.036 
4 *173:8 *480:A2 8.53572 
*END

*D_NET *174 0.0042039
*CONN
*P grant[30] O
*I *361:ZN O *D NOR3_X1
*CAP
1 grant[30] 0.000295144
2 *361:ZN 6.10528e-05
3 *174:18 0.000534753
4 *174:14 0.00113811
5 *174:10 0.000959557
6 grant[30] grant[34] 8.80549e-05
7 grant[30] *200:8 0.000192828
8 *174:10 *175:34 2.72417e-06
9 *174:14 *213:12 0
10 *174:14 *264:15 1.01907e-05
11 *174:18 *201:25 0.000187475
12 *174:18 *209:10 0
13 *174:18 *263:17 6.28554e-05
14 *174:18 *280:9 5.4573e-05
15 grant[27] grant[30] 2.60945e-06
16 *478:B1 *174:10 2.96955e-05
17 *40:8 *174:10 0.000195763
18 *40:19 *174:10 8.83417e-05
19 *55:34 *174:10 0.000246552
20 *170:25 grant[30] 5.36167e-05
*RES
1 *361:ZN *174:10 30.3929 
2 *174:10 *174:14 35.03 
3 *174:14 *174:18 32.1786 
4 *174:18 grant[30] 41.5357 
*END

*D_NET *175 0.00408587
*CONN
*P grant[31] O
*I *460:A3 I *D OR4_X2
*I *362:ZN O *D AND2_X1
*CAP
1 grant[31] 0.000546292
2 *460:A3 3.73542e-05
3 *362:ZN 0.000132505
4 *175:34 0.000641443
5 grant[31] grant[32] 8.51356e-06
6 grant[31] *232:13 0.0012061
7 *460:A3 *243:27 0
8 *460:A3 *281:9 4.58343e-06
9 grant[2] grant[31] 6.58597e-05
10 *460:A2 *460:A3 1.8031e-05
11 *460:A2 *175:34 7.19036e-06
12 *478:B1 *175:34 5.39412e-06
13 *40:19 *175:34 2.61175e-06
14 *40:30 *175:34 3.12145e-06
15 *55:34 *175:34 3.31547e-05
16 *115:10 *460:A3 1.04395e-05
17 *152:35 *175:34 0.000266183
18 *155:23 *460:A3 1.85634e-05
19 *155:23 *175:34 7.19036e-06
20 *171:12 grant[31] 0.00106861
21 *174:10 *175:34 2.72417e-06
*RES
1 *362:ZN *460:A3 25.1786 
2 *362:ZN *175:34 30.25 
3 *175:34 grant[31] 114.536 
*END

*D_NET *176 0.00433295
*CONN
*P grant[32] O
*I *355:ZN O *D NOR2_X1
*CAP
1 grant[32] 0.000254346
2 *355:ZN 0.000238129
3 *176:12 0.000254346
4 *176:10 0.000621013
5 *176:8 0.000859142
6 grant[32] *232:13 0.000576688
7 grant[32] *244:13 0.000588239
8 grant[32] *265:5 3.82719e-06
9 *176:8 *406:A4 2.37137e-05
10 *176:8 *246:13 3.69132e-05
11 *176:8 *274:5 6.27971e-05
12 *176:8 *274:13 0
13 *176:8 *282:27 0.00028608
14 *176:10 *411:A 5.28272e-06
15 *176:10 *194:14 6.71209e-06
16 *176:10 *203:8 3.81198e-05
17 *176:10 *233:31 0
18 *176:10 *264:30 5.5931e-06
19 *176:10 *266:9 0
20 *176:10 *275:21 4.26902e-05
21 grant[31] grant[32] 8.51356e-06
22 *398:A3 *176:10 2.28505e-05
23 *399:A4 *176:10 9.9547e-05
24 *420:A2 *176:10 6.12838e-05
25 *5:10 *176:10 4.38166e-05
26 *79:8 *176:10 0.000139174
27 *85:27 *176:10 3.81888e-05
28 *119:10 *176:10 1.59481e-05
29 *160:16 *176:10 0
*RES
1 *355:ZN *176:8 44.75 
2 *176:8 *176:10 66.0715 
3 *176:10 *176:12 5 
4 *176:12 grant[32] 55.5357 
*END

*D_NET *177 0.00373976
*CONN
*P grant[33] O
*I *373:ZN O *D NOR2_X1
*CAP
1 grant[33] 2.672e-05
2 *373:ZN 7.02749e-05
3 *177:20 0.000226094
4 *177:18 0.000223068
5 *177:12 0.000404749
6 *177:10 0.00045133
7 grant[33] *252:17 8.58925e-06
8 *177:10 *281:9 8.82319e-05
9 *177:12 *288:A2 1.37673e-05
10 *177:12 *180:8 0.000518496
11 *177:12 *279:23 3.47275e-05
12 *177:18 *208:10 0
13 *177:18 *271:9 7.0096e-06
14 *177:18 *279:23 7.11905e-07
15 grant[17] grant[33] 2.05033e-06
16 grant[17] *177:12 8.61033e-05
17 grant[17] *177:20 0.000527505
18 grant[19] *177:20 0.000528572
19 grant[29] grant[33] 2.05033e-06
20 grant[29] *177:12 0.000317599
21 *384:A1 *177:10 9.54458e-06
22 *7:45 *177:10 0.000100795
23 *7:51 *177:10 9.1774e-05
*RES
1 *373:ZN *177:10 28.1429 
2 *177:10 *177:12 69.75 
3 *177:12 *177:18 12.2857 
4 *177:18 *177:20 48.25 
5 *177:20 grant[33] 12.8214 
*END

*D_NET *178 0.00415955
*CONN
*P grant[34] O
*I *485:A1 I *D NOR2_X1
*I *374:ZN O *D NOR4_X2
*CAP
1 grant[34] 0.000322194
2 *485:A1 9.34767e-05
3 *374:ZN 0
4 *178:31 0.000449367
5 *178:27 0.000344641
6 *178:23 0.000542789
7 *178:4 0.000418799
8 grant[34] *290:A3 1.03058e-05
9 grant[34] *409:A2 5.81102e-06
10 grant[34] *200:8 0
11 grant[34] *276:9 0.000474214
12 *485:A1 *374:A1 1.27666e-06
13 *485:A1 *485:A2 2.52965e-06
14 *178:23 *293:A4 0
15 *178:23 *246:21 0
16 *178:23 *249:15 0
17 *178:23 *249:17 0
18 *178:23 *274:13 0
19 *178:27 *204:10 1.11943e-05
20 *178:27 *229:9 6.87816e-06
21 *178:27 *233:31 6.33603e-05
22 *178:27 *258:11 1.17438e-05
23 *178:27 *267:9 0.000620902
24 *178:27 *267:13 8.16729e-06
25 *178:31 *409:A2 4.98241e-05
26 *178:31 *233:31 5.79846e-05
27 grant[29] *485:A1 4.83909e-05
28 grant[29] *178:23 0.00012042
29 grant[30] grant[34] 8.80549e-05
30 *374:A2 *485:A1 8.26038e-06
31 *374:A2 *178:23 4.05911e-05
32 *374:A3 *485:A1 0
33 *424:A3 grant[34] 1.25215e-05
34 *424:A3 *178:31 6.6339e-05
35 *428:A1 *178:23 5.52692e-06
36 *482:A *178:27 0.000184556
37 *483:A *178:31 2.77939e-05
38 *483:B1 *178:27 1.67788e-06
39 *8:18 *485:A1 0
40 *8:18 *178:23 1.87369e-06
41 *60:51 *485:A1 9.62051e-07
42 *63:6 *178:23 3.78376e-05
43 *163:20 grant[34] 3.23723e-07
44 *163:20 *178:31 1.89654e-05
*RES
1 *374:ZN *178:4 5 
2 *178:4 *485:A1 17.4286 
3 *178:4 *178:23 46.4286 
4 *178:23 *178:27 43.25 
5 *178:27 *178:31 19.1786 
6 *178:31 grant[34] 49.3929 
*END

*D_NET *179 0.00342664
*CONN
*P grant[35] O
*I *456:A I *D AOI211_X1
*I *375:ZN O *D NOR3_X1
*CAP
1 grant[35] 0.000664176
2 *456:A 0.000188091
3 *375:ZN 0
4 *179:23 0.0010249
5 *179:4 0.000548812
6 grant[35] grant[44] 0.000506401
7 *456:A *183:10 5.10087e-06
8 *456:A *223:21 0
9 *456:A *282:47 4.6516e-05
10 *179:23 *241:9 0
11 *179:23 *247:13 0
12 *179:23 *282:43 5.46432e-05
13 grant[15] grant[35] 0.000256963
14 grant[24] grant[35] 2.60945e-06
15 *372:A2 *179:23 5.14625e-07
16 *374:A4 *179:23 3.602e-06
17 *375:A1 *179:23 1.38957e-05
18 *375:A2 *456:A 5.66249e-05
19 *456:C2 *456:A 1.65537e-05
20 *8:18 *179:23 3.40582e-05
21 *64:12 *456:A 2.55787e-06
22 *112:12 *456:A 6.25848e-07
*RES
1 *375:ZN *179:4 5 
2 *179:4 *456:A 38.1072 
3 *179:4 *179:23 46.2143 
4 *179:23 grant[35] 105.036 
*END

*D_NET *180 0.00516044
*CONN
*P grant[36] O
*I *369:ZN O *D AND3_X1
*CAP
1 grant[36] 1.21926e-05
2 *369:ZN 1.50803e-05
3 *180:16 0.000356604
4 *180:14 0.000344411
5 *180:12 0.000444826
6 *180:10 0.000444826
7 *180:8 0.000449023
8 *180:6 0.000464103
9 *180:8 grant[47] 0
10 *180:8 *485:A2 9.62051e-07
11 *180:8 *192:18 3.58094e-06
12 *180:12 *202:12 6.45967e-05
13 *180:12 *229:9 0.000138356
14 *180:12 *262:11 0.000128998
15 *180:16 *236:13 0.000718081
16 *180:16 *238:13 6.74466e-06
17 *180:16 *256:7 0
18 grant[11] grant[36] 1.3917e-06
19 grant[11] *180:16 2.75346e-06
20 grant[12] grant[36] 2.05033e-06
21 grant[13] *180:16 4.88094e-06
22 grant[17] *180:8 4.41389e-05
23 grant[29] *180:8 9.59089e-06
24 *381:A3 *180:8 1.68643e-06
25 *381:A4 *180:8 7.19036e-06
26 *383:A3 *180:8 1.27666e-06
27 *383:A4 *180:8 1.93961e-05
28 *419:A1 *180:12 2.48043e-05
29 *432:A3 *180:12 3.49085e-06
30 *85:12 *180:12 0.000141033
31 *156:22 *180:16 0.000701735
32 *161:12 *180:12 7.27329e-06
33 *164:20 *180:12 1.62084e-05
34 *172:14 *180:8 6.06626e-05
35 *177:12 *180:8 0.000518496
*RES
1 *369:ZN *180:6 6.60714 
2 *180:6 *180:8 64.75 
3 *180:8 *180:10 5 
4 *180:10 *180:12 54.5357 
5 *180:12 *180:14 5 
6 *180:14 *180:16 70.25 
7 *180:16 grant[36] 1.46429 
*END

*D_NET *181 0.00440084
*CONN
*P grant[37] O
*I *382:ZN O *D INV_X1
*CAP
1 grant[37] 1.23635e-05
2 *382:ZN 0.000210317
3 *181:20 0.000337955
4 *181:18 0.000340672
5 *181:16 0.00049848
6 *181:14 0.000791417
7 *181:10 0.000518334
8 grant[37] grant[39] 2.05033e-06
9 grant[37] *263:7 1.20712e-06
10 *181:10 *281:9 9.97726e-05
11 *181:14 *281:9 0.000167257
12 *181:16 *330:A1 1.73151e-05
13 *181:16 *356:A1 2.56243e-06
14 *181:16 *183:25 0.000100917
15 *181:16 *255:13 0.00029081
16 *181:20 grant[39] 0.000126832
17 *181:20 *183:25 2.39679e-06
18 *181:20 *255:13 1.91681e-05
19 *181:20 *263:7 0.000438493
20 *307:A1 *181:14 2.92456e-05
21 *356:A3 *181:16 1.88327e-05
22 *459:A *181:10 1.22778e-05
23 *459:C2 *181:10 8.58925e-06
24 *13:10 *181:16 6.83898e-05
25 *27:20 *181:16 5.39044e-05
26 *52:8 *181:16 6.81701e-06
27 *115:10 *181:10 7.26279e-05
28 *115:10 *181:14 0.000151839
29 *130:10 *181:16 0
*RES
1 *382:ZN *181:10 37.8036 
2 *181:10 *181:14 49.0179 
3 *181:14 *181:16 69.8572 
4 *181:16 *181:18 1.60714 
5 *181:18 *181:20 51.1429 
6 *181:20 grant[37] 1.46429 
*END

*D_NET *182 0.00301749
*CONN
*P grant[38] O
*I *485:A2 I *D NOR2_X1
*I *383:ZN O *D NOR4_X2
*CAP
1 grant[38] 0.000780012
2 *485:A2 5.34654e-05
3 *383:ZN 0.00028817
4 *182:10 0.00101472
5 grant[38] grant[42] 0
6 grant[38] grant[60] 0.000299179
7 grant[38] index[0] 0
8 grant[38] *237:5 0
9 grant[38] *260:5 9.09708e-05
10 *485:A2 grant[47] 8.26038e-06
11 *182:10 *281:9 0
12 grant[16] grant[38] 0.000359879
13 grant[29] *485:A2 7.19036e-06
14 *384:A1 *485:A2 0.00010583
15 *485:A1 *485:A2 2.52965e-06
16 *56:8 *182:10 6.32202e-06
17 *180:8 *485:A2 9.62051e-07
*RES
1 *383:ZN *182:10 38.3214 
2 *182:10 grant[38] 115.536 
3 *383:ZN *485:A2 27.1786 
*END

*D_NET *183 0.00400887
*CONN
*P grant[39] O
*I *456:B I *D AOI211_X1
*I *384:ZN O *D NOR3_X1
*CAP
1 grant[39] 0.000447262
2 *456:B 1.35917e-05
3 *384:ZN 8.46828e-05
4 *183:27 0.000462342
5 *183:25 0.00044868
6 *183:23 0.0004336
7 *183:21 0.000525377
8 *183:10 0.000623652
9 grant[39] *225:5 0
10 grant[39] *255:11 2.05033e-06
11 *456:B *456:C1 2.30029e-05
12 *183:10 *456:C1 1.59582e-06
13 *183:10 *262:13 0
14 *183:25 *299:A1 7.21602e-06
15 *183:25 *329:A1 7.55805e-05
16 *183:25 *330:A1 5.62375e-06
17 *183:25 *356:A1 0.000125499
18 *183:25 *229:13 1.04623e-05
19 *183:25 *229:15 6.84742e-06
20 *183:25 *244:21 1.28122e-06
21 grant[37] grant[39] 2.05033e-06
22 *314:A1 *183:21 0.0001167
23 *327:A2 *183:21 7.83546e-06
24 *456:A *183:10 5.10087e-06
25 *456:C2 *456:B 1.26998e-05
26 *456:C2 *183:10 1.86128e-05
27 *456:C2 *183:21 2.80478e-06
28 *478:A *183:25 0
29 *491:A2 *183:21 9.26282e-06
30 *500:A2 *183:21 7.16887e-06
31 *7:8 *183:21 2.96616e-05
32 *13:10 *183:25 0.000159965
33 *14:10 *183:25 7.19036e-06
34 *42:6 *456:B 4.12459e-06
35 *42:6 *183:10 0
36 *55:12 *183:21 1.02373e-05
37 *94:10 *183:21 5.74689e-06
38 *112:12 *183:21 0
39 *168:12 *183:21 8.12179e-05
40 *181:16 *183:25 0.000100917
41 *181:20 grant[39] 0.000126832
42 *181:20 *183:25 2.39679e-06
*RES
1 *384:ZN *183:10 18.8929 
2 *183:10 *456:B 12.25 
3 *183:10 *183:21 53.8572 
4 *183:21 *183:23 5 
5 *183:23 *183:25 58.8572 
6 *183:25 *183:27 1.60714 
7 *183:27 grant[39] 51.4286 
*END

*D_NET *184 0.00695451
*CONN
*P grant[3] O
*I *443:ZN O *D NOR2_X1
*CAP
1 grant[3] 1.48659e-05
2 *443:ZN 0
3 *184:12 0.0016122
4 *184:10 0.00159734
5 *184:8 0.000283438
6 *184:6 0.000283438
7 grant[3] grant[9] 3.73676e-06
8 grant[3] *222:11 3.73676e-06
9 grant[3] *252:17 7.4351e-06
10 *184:8 *394:A 0
11 *184:8 *188:10 0.000319243
12 *184:8 *257:21 0
13 *184:8 *283:15 0.0004048
14 *184:12 *190:12 0
15 *184:12 *222:13 0.000274907
16 *184:12 *256:13 0.00212938
17 grant[21] grant[3] 1.99813e-05
18 *76:8 *184:8 0
*RES
1 *443:ZN *184:6 10 
2 *184:6 *184:8 55.0357 
3 *184:8 *184:10 5 
4 *184:10 *184:12 71.19 
5 *184:12 grant[3] 12.1429 
*END

*D_NET *185 0.0061525
*CONN
*P grant[40] O
*I *379:ZN O *D AND4_X1
*CAP
1 grant[40] 1.32302e-05
2 *379:ZN 0
3 *185:12 0.00200072
4 *185:10 0.00198749
5 *185:8 0.000367466
6 *185:6 0.000367466
7 grant[40] *225:5 2.05033e-06
8 grant[40] *244:9 2.05208e-05
9 grant[40] *255:11 2.05033e-06
10 *185:8 *223:27 3.09511e-05
11 *185:8 *223:33 6.33099e-05
12 *466:A3 *185:8 4.62026e-05
13 *157:8 *185:8 0.00125103
*RES
1 *379:ZN *185:6 10 
2 *185:6 *185:8 66.25 
3 *185:8 *185:10 5 
4 *185:10 *185:12 67.2 
5 *185:12 grant[40] 11.6429 
*END

*D_NET *186 0.00479734
*CONN
*P grant[41] O
*I *391:ZN O *D NOR2_X1
*CAP
1 grant[41] 3.47949e-06
2 *391:ZN 0.000292473
3 *186:20 0.000752203
4 *186:12 0.00121253
5 *186:10 0.000756284
6 grant[41] grant[45] 2.05033e-06
7 grant[41] *276:9 4.14516e-06
8 *186:10 *385:A 1.80809e-05
9 *186:10 *400:A1 1.40196e-06
10 *186:10 *206:23 0
11 *186:10 *226:27 0
12 *186:12 *337:A1 4.32144e-07
13 *186:12 *400:A1 3.19164e-07
14 *186:12 *226:27 0
15 *186:20 *190:12 0.00148732
16 *337:A3 *186:12 7.72792e-06
17 *387:A1 *186:10 4.47285e-06
18 *387:A4 *186:10 0
19 *387:A4 *186:12 9.57492e-07
20 *400:A2 *186:12 6.48216e-07
21 *457:B *186:10 0
22 *461:A *186:10 0
23 *461:C1 *186:10 6.38784e-06
24 *461:C2 *186:10 6.38784e-06
25 *466:A1 *186:10 0
26 *495:A2 *186:10 7.31355e-06
27 *500:A2 *186:12 7.35445e-06
28 *36:19 *186:12 5.96468e-05
29 *66:10 *186:12 0
30 *67:8 *186:12 0
31 *94:10 *186:12 0
32 *135:14 *186:20 1.66324e-05
33 *152:39 *186:12 0
34 *164:8 *186:12 8.48223e-05
35 *164:20 *186:20 9.55059e-06
36 *166:16 *186:20 5.47115e-05
*RES
1 *391:ZN *186:10 35.2857 
2 *186:10 *186:12 50.25 
3 *186:12 *186:20 46.9357 
4 *186:20 grant[41] 10.5357 
*END

*D_NET *187 0.00450072
*CONN
*P grant[42] O
*I *393:ZN O *D NOR3_X1
*CAP
1 grant[42] 0.00114162
2 *393:ZN 0
3 *187:10 0.00114162
4 *187:8 0.000529852
5 *187:6 0.000529852
6 grant[42] index[1] 0.000186715
7 grant[42] *260:5 0.000476782
8 grant[42] *272:5 0.000377115
9 *187:8 *295:A2 2.52511e-05
10 *187:8 *376:A1 3.01743e-06
11 *187:8 *394:A 3.01743e-06
12 *187:8 *257:25 1.90574e-06
13 *187:8 *258:30 3.01743e-05
14 *187:8 *258:41 3.01743e-06
15 *187:8 *283:15 0
16 grant[38] grant[42] 0
17 *393:A2 *187:8 3.25548e-05
18 *162:8 *187:8 1.82236e-05
*RES
1 *393:ZN *187:6 10 
2 *187:6 *187:8 64.7143 
3 *187:8 *187:10 5 
4 *187:10 grant[42] 167.536 
*END

*D_NET *188 0.00646154
*CONN
*P grant[43] O
*I *395:ZN O *D NOR2_X1
*CAP
1 grant[43] 5.21796e-05
2 *395:ZN 8.10055e-06
3 *188:30 0.000617922
4 *188:28 0.00067818
5 *188:20 0.000364522
6 *188:10 0.000544892
7 *188:8 0.000300907
8 grant[43] *225:5 2.60945e-06
9 grant[43] *244:9 0.000118037
10 grant[43] *275:7 2.05033e-06
11 *188:10 *440:A1 7.65127e-06
12 *188:10 *232:25 1.33584e-05
13 *188:10 *243:43 5.20238e-07
14 *188:10 *257:17 0
15 *188:10 *257:21 0
16 *188:10 *283:15 4.43274e-05
17 *188:20 *303:A2 4.11048e-05
18 *188:20 *223:35 0
19 *188:20 *243:35 0.000281599
20 *188:20 *285:12 0
21 *188:28 grant[4] 1.72633e-06
22 *188:28 *303:A1 2.24822e-06
23 *188:28 *303:A2 1.11792e-06
24 *188:28 *303:A4 5.32858e-06
25 *188:28 *225:25 8.90859e-05
26 *188:28 *227:21 2.68238e-05
27 *188:28 *227:25 1.73151e-05
28 *188:28 *243:27 9.92609e-05
29 *188:30 grant[48] 0.000677955
30 *188:30 grant[4] 0.00131472
31 *188:30 *225:19 0.000351623
32 *188:30 *225:25 0.000116834
33 *188:30 *243:11 2.52965e-06
34 *310:A4 *188:10 6.50827e-06
35 *440:A2 *188:10 1.04925e-05
36 *450:A1 *188:20 4.16464e-05
37 *450:A2 *188:20 6.34373e-06
38 *453:A *188:20 0
39 *453:B1 *188:10 1.18242e-05
40 *457:A *188:10 5.81144e-05
41 *457:C1 *188:10 1.33584e-05
42 *506:A3 *188:20 9.08971e-06
43 *23:23 *188:10 2.0025e-05
44 *76:8 *188:10 5.75004e-07
45 *102:8 *188:10 9.00678e-05
46 *108:10 *188:20 0
47 *109:12 *188:10 3.36627e-05
48 *116:8 *188:28 5.60561e-05
49 *184:8 *188:10 0.000319243
*RES
1 *395:ZN *188:8 10.75 
2 *188:8 *188:10 53.8572 
3 *188:10 *188:20 48.5357 
4 *188:20 *188:28 19.0357 
5 *188:28 *188:30 121.75 
6 *188:30 grant[43] 16.8929 
*END

*D_NET *189 0.0044894
*CONN
*P grant[44] O
*I *387:ZN O *D AND4_X1
*CAP
1 grant[44] 0.000934119
2 *387:ZN 0
3 *189:10 0.000934119
4 *189:8 0.000606663
5 *189:6 0.000606663
6 grant[44] grant[57] 0.000257776
7 grant[44] index[0] 0.000219617
8 *189:8 *294:A4 0.000171347
9 *189:8 *191:10 0
10 *189:8 *259:17 5.19786e-05
11 *189:8 *259:19 3.8984e-05
12 grant[15] grant[44] 0
13 grant[35] grant[44] 0.000506401
14 *297:A3 *189:8 4.24423e-05
15 *297:A4 *189:8 2.35942e-05
16 *112:22 *189:8 9.57005e-05
*RES
1 *387:ZN *189:6 10 
2 *189:6 *189:8 71.5 
3 *189:8 *189:10 5 
4 *189:10 grant[44] 142.536 
*END

*D_NET *190 0.00435932
*CONN
*P grant[45] O
*I *400:ZN O *D AND3_X1
*CAP
1 grant[45] 1.09738e-05
2 *400:ZN 2.39912e-05
3 *190:12 0.00139266
4 *190:10 0.00140568
5 grant[45] grant[49] 2.60945e-06
6 *190:10 *385:A 1.09659e-05
7 *190:10 *260:45 9.52997e-06
8 grant[20] grant[45] 2.99044e-06
9 grant[41] grant[45] 2.05033e-06
10 *61:17 *190:10 3.57322e-07
11 *67:12 *190:10 5.10087e-06
12 *67:16 *190:10 5.08992e-06
13 *166:16 *190:12 0
14 *184:12 *190:12 0
15 *186:20 *190:12 0.00148732
*RES
1 *400:ZN *190:10 18.2857 
2 *190:10 *190:12 56.07 
3 *190:12 grant[45] 11.1429 
*END

*D_NET *191 0.00521138
*CONN
*P grant[46] O
*I *402:ZN O *D NOR2_X1
*CAP
1 grant[46] 0.000535474
2 *402:ZN 0
3 *191:34 0.000769597
4 *191:30 0.000413109
5 *191:26 0.000398606
6 *191:10 0.00053824
7 *191:6 0.000318619
8 grant[46] *312:A2 0
9 grant[46] *225:5 0
10 grant[46] *225:15 5.98472e-05
11 grant[46] *243:5 0.000236178
12 grant[46] *275:7 2.4357e-05
13 *191:10 *294:A4 0
14 *191:10 *226:35 0.000592683
15 *191:10 *226:39 7.66985e-06
16 *191:10 *259:15 1.13153e-06
17 *191:10 *259:17 0
18 *191:10 *259:19 0
19 *191:26 *319:A1 2.30003e-05
20 *191:26 *505:A 4.21607e-06
21 *191:26 *225:31 1.93824e-05
22 *191:26 *226:39 2.42344e-05
23 *191:30 *344:A2 9.01846e-07
24 *191:30 *225:25 2.14856e-06
25 *191:30 *243:15 9.82807e-05
26 *191:34 *299:A3 4.12459e-06
27 *191:34 *299:A4 3.67946e-05
28 *191:34 *312:A2 0
29 *191:34 *344:A2 7.72537e-06
30 *191:34 *231:24 3.23723e-07
31 *191:34 *231:30 3.23723e-07
32 *191:34 *243:11 0
33 *191:34 *243:15 4.88458e-05
34 *315:A4 *191:34 6.19054e-05
35 *319:A2 *191:26 1.65202e-06
36 *331:A2 *191:34 4.77786e-06
37 *344:A4 *191:30 0.000111649
38 *387:A4 *191:10 1.23214e-06
39 *401:A2 *191:10 1.045e-05
40 *460:A2 *191:30 4.20654e-05
41 *460:A4 *191:30 7.72792e-06
42 *478:A *191:34 0
43 *493:A2 *191:10 2.40655e-06
44 *493:A2 *191:26 4.70559e-05
45 *506:A1 *191:26 1.77822e-05
46 *18:12 *191:26 5.31224e-05
47 *25:12 *191:34 1.18066e-05
48 *30:14 *191:26 3.80944e-05
49 *61:17 *191:10 2.16819e-05
50 *67:22 *191:10 1.60168e-05
51 *116:8 *191:26 3.23723e-07
52 *116:8 *191:30 6.81257e-05
53 *116:12 *191:26 0.000257141
54 *130:10 *191:26 0
55 *155:14 *191:26 7.72792e-06
56 *155:14 *191:30 1.43669e-05
57 *158:8 *191:34 1.32323e-05
58 *160:8 grant[46] 0.000233319
59 *160:8 *191:34 1.90208e-06
60 *189:8 *191:10 0
*RES
1 *402:ZN *191:6 10 
2 *191:6 *191:10 43.9286 
3 *191:10 *191:26 38.8214 
4 *191:26 *191:30 29.8572 
5 *191:30 *191:34 29.8572 
6 *191:34 grant[46] 73.0357 
*END

*D_NET *192 0.00520212
*CONN
*P grant[47] O
*I *404:ZN O *D INV_X1
*CAP
1 grant[47] 0.000852306
2 *404:ZN 0
3 *192:18 0.00104494
4 *192:8 0.000387512
5 *192:6 0.000194875
6 grant[47] grant[51] 7.11839e-05
7 grant[47] grant[56] 0.000112998
8 grant[47] *250:17 0.000785497
9 grant[47] *250:21 2.86475e-06
10 *192:8 *215:16 0.000277928
11 *192:8 *216:8 0.000898736
12 *192:18 *250:21 0
13 grant[17] grant[47] 1.28122e-06
14 grant[19] grant[47] 0.000349974
15 *369:A2 *192:18 6.46429e-06
16 *381:A1 grant[47] 7.72537e-06
17 *381:A4 grant[47] 3.23723e-07
18 *383:A3 grant[47] 3.17384e-05
19 *461:B *192:8 1.77822e-05
20 *485:A2 grant[47] 8.26038e-06
21 *81:8 *192:8 0.000146149
22 *172:14 *192:18 0
23 *180:8 grant[47] 0
24 *180:8 *192:18 3.58094e-06
*RES
1 *404:ZN *192:6 10 
2 *192:6 *192:8 47.75 
3 *192:8 *192:18 26.2143 
4 *192:18 grant[47] 134.036 
*END

*D_NET *193 0.00276604
*CONN
*P grant[48] O
*I *399:ZN O *D NOR4_X1
*CAP
1 grant[48] 0.000321831
2 *399:ZN 0.000213334
3 *193:10 0.000535165
4 grant[48] grant[4] 1.20712e-06
5 grant[48] *243:5 0.000235841
6 grant[48] *243:11 0.00013006
7 *193:10 *277:9 0.000570806
8 *78:12 *193:10 7.98408e-05
9 *188:30 grant[48] 0.000677955
*RES
1 *399:ZN *193:10 45.7857 
2 *193:10 grant[48] 63.0357 
*END

*D_NET *194 0.00227842
*CONN
*P grant[49] O
*I *464:A1 I *D OR4_X2
*I *412:ZN O *D NOR3_X1
*CAP
1 grant[49] 0.000382018
2 *464:A1 0
3 *412:ZN 7.08638e-05
4 *194:23 0.00052803
5 *194:14 0.000216875
6 grant[49] grant[52] 9.49844e-05
7 grant[49] *200:10 1.02013e-05
8 grant[49] *233:15 0.000159073
9 grant[49] *239:9 4.11048e-05
10 grant[49] *276:9 0
11 grant[49] *279:9 0
12 *194:14 *464:A2 2.39679e-06
13 *194:14 *220:8 8.43215e-07
14 *194:23 *464:A2 2.59321e-05
15 *194:23 *464:A3 3.46864e-06
16 *194:23 *197:23 0.000313078
17 *194:23 *220:8 1.03315e-06
18 grant[18] *194:23 0.000318584
19 grant[45] grant[49] 2.60945e-06
20 *399:A4 *194:14 2.38318e-05
21 *412:A1 *194:14 1.32348e-05
22 *412:A2 *194:14 9.76062e-06
23 *412:A3 *194:14 2.18279e-06
24 *416:A1 *194:14 2.1136e-05
25 *464:A4 *194:14 4.32144e-07
26 *465:A4 *194:14 0
27 *119:10 *194:14 9.17868e-06
28 *160:16 *194:14 9.85721e-07
29 *163:20 grant[49] 1.98659e-05
30 *176:10 *194:14 6.71209e-06
*RES
1 *412:ZN *194:14 24.1786 
2 *194:14 *464:A1 5 
3 *194:14 *194:23 36.25 
4 *194:23 grant[49] 48.6786 
*END

*D_NET *195 0.00489808
*CONN
*P grant[4] O
*I *504:ZN O *D AND4_X1
*CAP
1 grant[4] 0.000628592
2 *504:ZN 5.50222e-05
3 *195:12 0.000900638
4 *195:8 0.000327068
5 grant[4] grant[50] 0.00014249
6 grant[4] *227:13 0.00111577
7 grant[4] *243:27 0.000128748
8 *195:8 *276:25 0
9 *195:12 *224:13 9.16656e-05
10 *195:12 *227:21 1.72426e-05
11 grant[48] grant[4] 1.20712e-06
12 *473:A2 *195:12 6.54124e-05
13 *30:43 *195:12 2.3767e-06
14 *30:47 grant[4] 1.68643e-06
15 *30:71 *195:12 4.51787e-05
16 *105:12 *195:12 3.34324e-06
17 *154:8 *195:12 5.51848e-05
18 *188:28 grant[4] 1.72633e-06
19 *188:30 grant[4] 0.00131472
*RES
1 *504:ZN *195:8 15.75 
2 *195:8 *195:12 41.8929 
3 *195:12 grant[4] 134.536 
*END

*D_NET *196 0.00279513
*CONN
*P grant[50] O
*I *415:ZN O *D AND3_X1
*CAP
1 grant[50] 0.000367276
2 *415:ZN 0.000189927
3 *196:10 0.000367276
4 *196:8 0.000189927
5 grant[50] *227:13 0.000370463
6 grant[50] *259:5 0.000302036
7 *196:8 *287:A4 8.00618e-05
8 *196:8 *413:A 1.53511e-06
9 *196:8 *225:15 2.89323e-05
10 *196:8 *277:9 9.73153e-05
11 grant[4] grant[50] 0.00014249
12 *170:21 *196:8 0.000657898
*RES
1 *415:ZN *196:8 45.5357 
2 *196:8 *196:10 5 
3 *196:10 grant[50] 65.0357 
*END

*D_NET *197 0.00341645
*CONN
*P grant[51] O
*I *464:A2 I *D OR4_X2
*I *416:ZN O *D NOR2_X1
*CAP
1 grant[51] 8.72324e-05
2 *464:A2 2.75136e-05
3 *416:ZN 0
4 *197:25 0.000644337
5 *197:23 0.000725313
6 *197:4 0.000195722
7 grant[51] grant[56] 7.1743e-05
8 *464:A2 *464:A3 7.19036e-06
9 *464:A2 *220:8 1.92742e-05
10 *197:23 *220:8 0.00037427
11 *197:25 *199:10 0.000610965
12 *197:25 *279:9 0.000182898
13 grant[18] *197:23 2.69813e-05
14 grant[47] grant[51] 7.11839e-05
15 *412:A3 *464:A2 2.89018e-05
16 *160:16 *464:A2 1.52083e-06
17 *194:14 *464:A2 2.39679e-06
18 *194:23 *464:A2 2.59321e-05
19 *194:23 *197:23 0.000313078
*RES
1 *416:ZN *197:4 5 
2 *197:4 *464:A2 19.1071 
3 *197:4 *197:23 40.25 
4 *197:23 *197:25 65.3929 
5 *197:25 grant[51] 20.0357 
*END

*D_NET *198 0.000945763
*CONN
*P grant[52] O
*I *410:ZN O *D AND4_X1
*CAP
1 grant[52] 0.000377726
2 *410:ZN 1.37966e-05
3 *198:6 0.000391523
4 grant[52] grant[5] 9.57492e-07
5 grant[52] *206:35 0
6 grant[52] *233:15 6.20168e-05
7 grant[52] *269:15 0
8 *198:6 *233:15 2.70833e-06
9 grant[21] grant[52] 2.05033e-06
10 grant[49] grant[52] 9.49844e-05
*RES
1 *410:ZN *198:6 6.60714 
2 *198:6 grant[52] 45.0357 
*END

*D_NET *199 0.00409728
*CONN
*P grant[53] O
*I *421:ZN O *D INV_X1
*CAP
1 grant[53] 9.84229e-05
2 *421:ZN 0.000126107
3 *199:10 0.000538913
4 *199:8 0.000566597
5 grant[53] grant[54] 7.06365e-05
6 grant[53] *259:5 7.06365e-05
7 *199:8 *226:5 0.000323749
8 *199:8 *273:15 0.000324286
9 *199:10 *279:9 0.00136697
10 *197:25 *199:10 0.000610965
*RES
1 *421:ZN *199:8 39.75 
2 *199:8 *199:10 74.2143 
3 *199:10 grant[53] 20.5357 
*END

*D_NET *200 0.00243449
*CONN
*P grant[54] O
*I *424:ZN O *D NOR3_X1
*CAP
1 grant[54] 0.000136771
2 *424:ZN 0.000130014
3 *200:10 0.000702375
4 *200:8 0.000695619
5 grant[54] grant[55] 1.3917e-06
6 grant[54] *259:5 1.78823e-05
7 grant[54] *285:12 0.00025536
8 *200:8 *290:A3 1.94465e-06
9 *200:10 *239:9 0.000121376
10 grant[30] *200:8 0.000192828
11 grant[34] *200:8 0
12 grant[49] *200:10 1.02013e-05
13 grant[53] grant[54] 7.06365e-05
14 *170:25 *200:8 9.80891e-05
*RES
1 *424:ZN *200:8 31.75 
2 *200:8 *200:10 56.5715 
3 *200:10 grant[54] 29.0357 
*END

*D_NET *201 0.00284668
*CONN
*P grant[55] O
*I *464:A3 I *D OR4_X2
*I *425:ZN O *D AND2_X2
*CAP
1 grant[55] 0.000219258
2 *464:A3 5.13655e-05
3 *425:ZN 7.27029e-05
4 *201:25 0.000516963
5 *201:21 0.000329272
6 *201:10 0.000155636
7 grant[55] *247:5 0.000195983
8 grant[55] *285:12 0.00045165
9 *464:A3 *268:5 0
10 *201:10 *205:10 0.000187549
11 *201:10 *268:9 3.08152e-05
12 *201:21 *268:5 0
13 *201:25 *263:17 6.32869e-05
14 *201:25 *280:9 0.000278705
15 grant[18] *464:A3 5.60444e-05
16 grant[18] *201:21 3.55218e-05
17 grant[54] grant[55] 1.3917e-06
18 *464:A2 *464:A3 7.19036e-06
19 *464:A4 *464:A3 2.39679e-06
20 *165:34 *464:A3 0
21 *174:18 *201:25 0.000187475
22 *194:23 *464:A3 3.46864e-06
*RES
1 *425:ZN *201:10 25.4286 
2 *201:10 *464:A3 11.75 
3 *201:10 *201:21 8.75 
4 *201:21 *201:25 46.6429 
5 *201:25 grant[55] 42.0357 
*END

*D_NET *202 0.00288539
*CONN
*P grant[56] O
*I *419:ZN O *D AND4_X1
*CAP
1 grant[56] 0.00039932
2 *419:ZN 1.78682e-05
3 *202:12 0.000661024
4 *202:8 0.000279573
5 grant[56] grant[61] 1.03873e-05
6 grant[56] *250:17 2.99242e-05
7 grant[56] *253:13 0.000768922
8 *202:8 *235:17 2.68997e-05
9 *202:12 *432:A1 9.21631e-05
10 *202:12 *229:9 0
11 *202:12 *262:11 7.48003e-06
12 grant[47] grant[56] 0.000112998
13 grant[51] grant[56] 7.1743e-05
14 *419:A1 *202:12 2.48043e-05
15 *420:A3 *202:8 2.68997e-05
16 *432:A3 *202:12 1.77822e-05
17 *158:10 *202:12 1.62341e-05
18 *161:12 *202:12 0.00020682
19 *164:20 *202:12 4.99498e-05
20 *180:12 *202:12 6.45967e-05
*RES
1 *419:ZN *202:8 12.75 
2 *202:8 *202:12 42.5714 
3 *202:12 grant[56] 72.5357 
*END

*D_NET *203 0.00233109
*CONN
*P grant[57] O
*I *430:ZN O *D INV_X1
*CAP
1 grant[57] 0.000292218
2 *430:ZN 0
3 *203:10 0.000292218
4 *203:8 0.00046434
5 *203:6 0.00046434
6 grant[57] index[0] 0.000258335
7 *203:8 *208:10 9.21086e-05
8 *203:8 *280:57 5.3209e-05
9 grant[44] grant[57] 0.000257776
10 *463:A2 *203:8 4.80268e-06
11 *463:A3 *203:8 4.32319e-05
12 *96:10 *203:8 4.09436e-05
13 *119:10 *203:8 2.94455e-05
14 *152:45 *203:8 0
15 *176:10 *203:8 3.81198e-05
*RES
1 *430:ZN *203:6 10 
2 *203:6 *203:8 49.7857 
3 *203:8 *203:10 5 
4 *203:10 grant[57] 53.0357 
*END

*D_NET *204 0.00457166
*CONN
*P grant[58] O
*I *432:ZN O *D NOR3_X1
*CAP
1 grant[58] 0.000391048
2 *432:ZN 2.96108e-05
3 *204:12 0.000391048
4 *204:10 0.000557165
5 *204:8 0.000586776
6 grant[58] grant[59] 9.75237e-05
7 grant[58] *239:15 0.000327184
8 grant[58] *239:17 7.64054e-05
9 grant[58] *247:5 0.000239303
10 grant[58] *247:9 4.3403e-05
11 *204:8 *234:13 7.24558e-06
12 *204:8 *262:5 1.62116e-05
13 *204:10 *397:A2 6.03486e-06
14 *204:10 *229:9 0.0012642
15 *204:10 *233:31 9.54451e-06
16 *204:10 *267:25 0.000143896
17 *415:A3 *204:10 7.14265e-05
18 *482:A *204:10 0.000118649
19 *483:B1 *204:10 3.78342e-05
20 *169:18 *204:10 0
21 *170:21 *204:10 0.000145962
22 *178:27 *204:10 1.11943e-05
*RES
1 *432:ZN *204:8 13.75 
2 *204:8 *204:10 89.8215 
3 *204:10 *204:12 5 
4 *204:12 grant[58] 67.5357 
*END

*D_NET *205 0.00426921
*CONN
*P grant[59] O
*I *434:ZN O *D INV_X1
*CAP
1 grant[59] 0.000255598
2 *434:ZN 4.643e-05
3 *205:12 0.000255598
4 *205:10 0.000566058
5 *205:8 0.000612488
6 grant[59] *239:15 0.000256952
7 grant[59] *245:5 0.000209097
8 *205:8 *223:17 2.91444e-05
9 *205:8 *275:13 2.56243e-06
10 *205:10 *256:11 7.40178e-05
11 *205:10 *268:9 1.25282e-05
12 *205:10 *270:9 0.000100897
13 *205:10 *276:13 0.00121774
14 *205:10 *280:9 3.28136e-05
15 grant[58] grant[59] 9.75237e-05
16 *410:A3 *205:10 0.000267364
17 *463:A4 *205:8 4.48522e-05
18 *201:10 *205:10 0.000187549
*RES
1 *434:ZN *205:8 16.75 
2 *205:8 *205:10 87.1072 
3 *205:10 *205:12 5 
4 *205:12 grant[59] 45.0357 
*END

*D_NET *206 0.00664428
*CONN
*P grant[5] O
*I *455:A2 I *D NOR3_X1
*I *447:ZN O *D AND3_X2
*CAP
1 grant[5] 2.19796e-05
2 *455:A2 0
3 *447:ZN 0.000131234
4 *206:35 0.00045775
5 *206:33 0.000684653
6 *206:23 0.000565104
7 *206:21 0.000316221
8 *206:19 0.000560936
9 *206:17 0.000567481
10 *206:8 0.000137779
11 grant[5] grant[63] 5.62023e-06
12 *206:8 *444:A1 2.96955e-05
13 *206:8 *214:10 5.54348e-05
14 *206:8 *282:63 0.000197047
15 *206:19 *214:10 4.44127e-06
16 *206:19 *214:14 6.4045e-05
17 *206:19 *216:8 0
18 *206:19 *254:33 2.08098e-06
19 *206:19 *259:17 0
20 *206:23 *301:A3 3.80969e-05
21 *206:23 *301:A4 1.49007e-05
22 *206:23 *226:27 0.000430911
23 *206:23 *260:17 3.94168e-05
24 *206:33 *301:A3 4.21607e-06
25 *206:33 *226:15 2.38316e-05
26 *206:33 *226:23 7.98822e-06
27 *206:33 *233:41 4.9902e-05
28 *206:33 *234:21 1.68643e-06
29 *206:33 *249:9 1.55619e-05
30 *206:35 grant[63] 0.000512566
31 *206:35 *420:A1 6.11946e-05
32 *206:35 *226:15 7.19036e-06
33 *206:35 *235:17 1.9241e-06
34 *206:35 *269:15 3.09091e-05
35 grant[21] grant[5] 2.05033e-06
36 grant[52] grant[5] 9.57492e-07
37 grant[52] *206:35 0
38 *306:A2 *206:19 6.68461e-05
39 *306:A3 *206:19 9.22959e-05
40 *420:A2 *206:35 4.50306e-05
41 *420:A3 *206:35 3.02627e-05
42 *420:A4 *206:35 4.69886e-06
43 *479:A *206:23 6.38328e-06
44 *482:A *206:33 2.83315e-05
45 *482:A *206:35 1.65202e-06
46 *482:B2 *206:35 1.25215e-05
47 *482:C2 *206:35 2.10785e-05
48 *486:A2 *206:23 1.28122e-06
49 *486:A2 *206:33 0.000121233
50 *504:A4 *206:8 0
51 *20:8 *206:8 9.88157e-05
52 *20:8 *206:19 0.000674359
53 *22:16 *206:19 8.25592e-06
54 *36:29 *206:33 4.18985e-05
55 *94:10 *206:23 0
56 *106:19 *206:8 0
57 *112:12 *206:23 1.25557e-05
58 *112:22 *206:19 3.99091e-05
59 *112:22 *206:23 0.000289953
60 *122:16 *206:19 0
61 *165:12 *206:33 2.11458e-06
62 *172:8 *206:19 0
63 *186:10 *206:23 0
*RES
1 *447:ZN *206:8 29.9286 
2 *206:8 *455:A2 10 
3 *206:8 *206:17 0.75 
4 *206:17 *206:19 75.5715 
5 *206:19 *206:21 5 
6 *206:21 *206:23 53.25 
7 *206:23 *206:33 43.1429 
8 *206:33 *206:35 63.25 
9 *206:35 grant[5] 2.64286 
*END

*D_NET *207 0.00246839
*CONN
*P grant[60] O
*I *428:ZN O *D AND3_X1
*CAP
1 grant[60] 0.000338936
2 *428:ZN 2.60091e-05
3 *207:12 0.000729945
4 *207:8 0.000417019
5 grant[60] *260:5 0.000299738
6 *207:8 *288:A4 2.15711e-05
7 *207:8 *274:13 3.66677e-05
8 *207:12 *288:A1 9.561e-06
9 *207:12 *288:A2 7.72854e-06
10 *207:12 *406:A2 2.05853e-06
11 *207:12 *406:A3 6.44784e-06
12 *207:12 *250:15 0.000226715
13 *207:12 *267:9 0
14 grant[38] grant[60] 0.000299179
15 *3:10 *207:12 4.10045e-05
16 *96:12 *207:8 5.81102e-06
*RES
1 *428:ZN *207:8 13.75 
2 *207:8 *207:12 45.2857 
3 *207:12 grant[60] 61.5357 
*END

*D_NET *208 0.0017925
*CONN
*P grant[61] O
*I *435:ZN O *D AND2_X1
*CAP
1 grant[61] 0.000253032
2 *435:ZN 0.00012694
3 *208:10 0.000379972
4 grant[61] index[3] 0.000249014
5 grant[61] *218:16 1.73931e-06
6 grant[61] *253:13 0.000546695
7 *208:10 *210:12 0
8 *208:10 *271:9 0
9 *208:10 *279:23 7.91399e-05
10 *208:10 *280:57 5.26342e-05
11 grant[56] grant[61] 1.03873e-05
12 *152:45 *208:10 8.33759e-07
13 *177:18 *208:10 0
14 *203:8 *208:10 9.21086e-05
*RES
1 *435:ZN *208:10 31.5357 
2 *208:10 grant[61] 52.0357 
*END

*D_NET *209 0.00420617
*CONN
*P grant[62] O
*I *437:ZN O *D NOR2_X1
*CAP
1 grant[62] 0.000261815
2 *437:ZN 8.22142e-05
3 *209:10 0.00123253
4 *209:8 0.00105292
5 grant[62] grant[6] 9.96724e-05
6 grant[62] grant[7] 0
7 grant[62] *212:28 0
8 grant[62] *245:5 4.97987e-05
9 grant[62] *279:7 7.2323e-05
10 *209:8 *280:13 0
11 *209:8 *280:39 4.97191e-06
12 *209:8 *280:45 2.75346e-06
13 *209:10 *214:20 0.00130612
14 *209:10 *254:13 0
15 *209:10 *263:17 0
16 grant[29] *209:8 2.57828e-05
17 *462:B1 *209:8 1.25189e-05
18 *100:14 *209:8 2.75346e-06
19 *152:49 *209:8 0
20 *174:18 *209:10 0
*RES
1 *437:ZN *209:8 20.25 
2 *209:8 *209:10 108.143 
3 *209:10 grant[62] 41.5357 
*END

*D_NET *210 0.00219953
*CONN
*P grant[63] O
*I *438:Z O *D CLKBUF_X1
*CAP
1 grant[63] 0.000252056
2 *438:Z 0.000228121
3 *210:12 0.000480177
4 grant[63] grant[9] 0.00038605
5 grant[63] *235:17 2.90828e-05
6 *210:12 *271:9 3.96444e-05
7 *210:12 *279:23 4.00957e-07
8 grant[5] grant[63] 5.62023e-06
9 *463:A4 *210:12 0.000107838
10 *100:14 *210:12 1.39582e-06
11 *152:45 *210:12 0.000156573
12 *206:35 grant[63] 0.000512566
13 *208:10 *210:12 0
*RES
1 *438:Z *210:12 45.3572 
2 *210:12 grant[63] 49.7143 
*END

*D_NET *211 0.00338627
*CONN
*P grant[6] O
*I *487:A1 I *D NOR4_X1
*I *474:ZN O *D NOR3_X4
*CAP
1 grant[6] 0.000169414
2 *487:A1 6.46546e-05
3 *474:ZN 8.71307e-06
4 *211:21 0.000736391
5 *211:6 0.000640344
6 grant[6] grant[7] 9.76361e-05
7 grant[6] *257:11 1.72405e-05
8 *487:A1 *474:A1 1.23214e-06
9 *211:21 grant[7] 1.87369e-06
10 *211:21 *474:A1 1.47097e-05
11 *211:21 *212:28 0.00113291
12 *211:21 *227:7 0.000106317
13 *211:21 *257:13 0.000249942
14 grant[62] grant[6] 9.96724e-05
15 *455:A1 *487:A1 2.11458e-06
16 *474:A3 *487:A1 3.42806e-05
17 *487:A2 *487:A1 6.0887e-06
18 *152:16 *487:A1 2.74145e-06
*RES
1 *474:ZN *211:6 5.92857 
2 *211:6 *487:A1 22.6071 
3 *211:6 *211:21 104.25 
4 *211:21 grant[6] 35.1786 
*END

*D_NET *212 0.00404539
*CONN
*P grant[7] O
*I *454:A1 I *D NOR3_X1
*I *448:ZN O *D AND2_X1
*CAP
1 grant[7] 0.000153781
2 *454:A1 0.000120731
3 *448:ZN 0.000159189
4 *212:28 0.00084663
5 *212:26 0.000731307
6 grant[7] *227:7 4.69702e-07
7 grant[7] *257:11 9.96502e-05
8 *454:A1 *214:10 0
9 *454:A1 *257:13 9.03317e-05
10 *212:26 *257:13 3.50842e-05
11 *212:26 *282:57 1.60038e-06
12 *212:28 *474:A1 1.86809e-06
13 *212:28 *245:5 0
14 *212:28 *257:13 3.35305e-05
15 *212:28 *282:53 7.73613e-05
16 *212:28 *282:57 0.000212724
17 grant[62] grant[7] 0
18 grant[62] *212:28 0
19 grant[6] grant[7] 9.76361e-05
20 *448:A2 *212:26 1.03979e-05
21 *170:17 *212:28 0.000238321
22 *211:21 grant[7] 1.87369e-06
23 *211:21 *212:28 0.00113291
*RES
1 *448:ZN *454:A1 34.6071 
2 *448:ZN *212:26 10.5357 
3 *212:26 *212:28 120.25 
4 *212:28 grant[7] 24.1429 
*END

*D_NET *213 0.00569089
*CONN
*P grant[8] O
*I *503:ZN O *D AND4_X1
*CAP
1 grant[8] 9.70504e-06
2 *503:ZN 0
3 *213:12 0.00212857
4 *213:10 0.00211887
5 *213:8 0.00028918
6 *213:6 0.00028918
7 *213:8 *442:A 1.85643e-05
8 *213:8 *243:49 9.05228e-06
9 *213:8 *254:64 2.74429e-05
10 *213:8 *283:15 1.82721e-05
11 *213:12 *264:15 0.000145735
12 grant[18] grant[8] 2.60945e-06
13 grant[20] grant[8] 5.18067e-06
14 *151:8 *213:8 0.000628531
15 *153:12 *213:12 0
16 *174:14 *213:12 0
*RES
1 *503:ZN *213:6 10 
2 *213:6 *213:8 46.7857 
3 *213:8 *213:10 5 
4 *213:10 *213:12 72.87 
5 *213:12 grant[8] 11.0714 
*END

*D_NET *214 0.00683032
*CONN
*P grant[9] O
*I *455:A3 I *D NOR3_X1
*I *451:ZN O *D AND3_X2
*CAP
1 grant[9] 0.000195408
2 *455:A3 5.27972e-06
3 *451:ZN 0.000169529
4 *214:20 0.000735302
5 *214:18 0.000539894
6 *214:16 0.000691014
7 *214:14 0.000763121
8 *214:10 0.000246916
9 grant[9] *235:17 0.000155416
10 *214:10 *257:13 0
11 *214:10 *282:63 8.43215e-07
12 *214:16 *259:5 0.000187792
13 *214:16 *259:11 0
14 *214:16 *285:12 0.00120122
15 *214:20 *227:11 0
16 *214:20 *254:13 0
17 grant[3] grant[9] 3.73676e-06
18 grant[63] grant[9] 0.00038605
19 *450:A1 *214:16 1.08981e-05
20 *450:A2 *214:16 1.86444e-05
21 *454:A1 *214:10 0
22 *455:A1 *455:A3 1.21774e-06
23 *467:A2 *455:A3 7.72792e-06
24 *488:A1 *214:14 0
25 *110:10 *214:14 0
26 *122:16 *214:14 0
27 *152:10 *214:10 0
28 *152:16 *455:A3 6.85774e-07
29 *152:16 *214:10 7.95846e-05
30 *164:22 grant[9] 0
31 *206:8 *214:10 5.54348e-05
32 *206:19 *214:10 4.44127e-06
33 *206:19 *214:14 6.4045e-05
34 *209:10 *214:20 0.00130612
*RES
1 *451:ZN *214:10 31.8929 
2 *214:10 *214:14 14.0714 
3 *214:14 *214:16 111.25 
4 *214:16 *214:18 5 
5 *214:18 *214:20 70.8215 
6 *214:20 grant[9] 41.0357 
7 *214:10 *455:A3 10.75 
*END

*D_NET *215 0.00739911
*CONN
*P index[0] O
*I *467:ZN O *D NAND3_X2
*CAP
1 index[0] 0.00104812
2 *467:ZN 0
3 *215:18 0.00104812
4 *215:16 0.000450086
5 *215:14 0.000465076
6 *215:8 0.000265558
7 *215:6 0.000250569
8 index[0] *237:5 0.000456935
9 *215:8 *216:8 0.0011511
10 *215:16 *216:8 9.49854e-05
11 grant[15] index[0] 0
12 grant[38] index[0] 0
13 grant[44] index[0] 0.000219617
14 grant[57] index[0] 0.000258335
15 *403:A2 *215:16 0
16 *461:A *215:8 9.44209e-05
17 *461:A *215:14 6.48216e-07
18 *461:B *215:8 3.31551e-05
19 *461:B *215:16 3.84423e-05
20 *488:A1 *215:8 3.07768e-05
21 *9:19 *215:16 0.000183685
22 *9:25 *215:16 0.000184167
23 *19:14 *215:8 4.50983e-05
24 *52:10 *215:8 0.000589558
25 *81:8 *215:16 0.000146939
26 *122:16 *215:8 5.11191e-06
27 *131:8 *215:16 1.391e-05
28 *156:8 *215:8 1.87251e-05
29 *156:12 *215:8 2.80355e-05
30 *192:8 *215:16 0.000277928
*RES
1 *467:ZN *215:6 10 
2 *215:6 *215:8 62 
3 *215:8 *215:14 11.25 
4 *215:14 *215:16 70.8215 
5 *215:16 *215:18 5 
6 *215:18 index[0] 152.536 
*END

*D_NET *216 0.00778424
*CONN
*P index[1] O
*I *488:ZN O *D NAND3_X1
*CAP
1 index[1] 0.00117423
2 *488:ZN 0
3 *216:10 0.00117423
4 *216:8 0.000732537
5 *216:6 0.000732537
6 index[1] *272:5 0.000377674
7 *216:8 *403:A1 0.000179374
8 grant[42] index[1] 0.000186715
9 *461:B *216:8 8.02977e-06
10 *122:16 *216:8 0.000768209
11 *172:8 *216:8 0.000305884
12 *192:8 *216:8 0.000898736
13 *206:19 *216:8 0
14 *215:8 *216:8 0.0011511
15 *215:16 *216:8 9.49854e-05
*RES
1 *488:ZN *216:6 10 
2 *216:6 *216:8 144.107 
3 *216:8 *216:10 5 
4 *216:10 index[1] 151.036 
*END

*D_NET *217 0.00462133
*CONN
*P index[2] O
*I *497:ZN O *D NAND3_X1
*CAP
1 index[2] 0.000106468
2 *497:ZN 1.49158e-05
3 *217:12 0.000883266
4 *217:10 0.000791714
5 index[2] *235:13 0.000193752
6 index[2] *236:9 0.000419745
7 index[2] *252:13 0.000213823
8 index[2] *252:17 4.57382e-06
9 index[2] *255:13 2.77939e-05
10 index[2] *263:7 1.19833e-05
11 index[2] *265:5 1.3917e-06
12 *217:10 *218:8 1.15031e-05
13 *217:12 *220:8 0.00023919
14 *217:12 *239:7 0.000200275
15 *217:12 *242:17 0.000981213
16 *217:12 *267:25 3.38384e-05
17 grant[13] *217:12 1.5125e-06
18 grant[14] *217:12 2.35379e-05
19 *359:A2 *217:12 0
20 *466:A4 *217:12 0
21 *497:A2 *217:12 0
22 *7:12 *217:12 0
23 *35:12 *217:12 6.85774e-07
24 *79:12 *217:12 3.45517e-05
25 *127:10 *217:10 5.5983e-05
26 *155:35 *217:12 0.000369617
27 *156:22 *217:12 0
*RES
1 *497:ZN *217:10 17.9643 
2 *217:10 *217:12 127.25 
3 *217:12 index[2] 35.6786 
*END

*D_NET *218 0.00449619
*CONN
*P index[3] O
*I *499:ZN O *D OAI21_X1
*CAP
1 index[3] 0.000285837
2 *499:ZN 0
3 *218:18 0.00029455
4 *218:16 0.000496666
5 *218:14 0.0005607
6 *218:8 0.000725728
7 *218:6 0.00065298
8 index[3] *229:5 0.000247796
9 *218:8 *484:B2 0
10 *218:8 *262:17 0
11 *218:14 *296:A3 0
12 *218:14 *251:11 1.70033e-05
13 *218:16 *296:A1 7.23894e-05
14 *218:16 *296:A2 1.6777e-05
15 *218:16 *229:5 0.000182997
16 *218:16 *252:21 0.000257061
17 *218:16 *253:13 0.000146223
18 *218:16 *253:17 2.13169e-05
19 grant[61] index[3] 0.000249014
20 grant[61] *218:16 1.73931e-06
21 *297:A1 *218:8 0
22 *366:A2 *218:16 1.11799e-05
23 *381:A4 *218:16 0
24 *459:C1 *218:8 0
25 *496:C1 *218:8 0
26 *499:A *218:8 7.3062e-05
27 *499:B1 *218:8 1.11168e-06
28 *12:10 *218:8 5.99213e-05
29 *12:21 *218:8 6.55659e-05
30 *67:10 *218:8 0
31 *67:16 *218:8 0
32 *71:12 *218:8 0
33 *71:27 *218:8 0
34 *127:10 *218:8 3.58127e-05
35 *138:10 *218:8 8.21848e-06
36 *156:20 *218:8 1.04048e-06
37 *217:10 *218:8 1.15031e-05
*RES
1 *499:ZN *218:6 10 
2 *218:6 *218:8 73.1965 
3 *218:8 *218:14 12.4464 
4 *218:14 *218:16 77.3572 
5 *218:16 *218:18 0.928572 
6 *218:18 index[3] 51.4286 
*END

*D_NET *219 0.00439266
*CONN
*P index[4] O
*I *500:ZN O *D NAND2_X1
*CAP
1 index[4] 0.000697089
2 *500:ZN 0
3 *219:10 0.000697089
4 *219:8 0.000454789
5 *219:6 0.000454789
6 index[4] valid 2.05033e-06
7 index[4] *221:5 0.000563188
8 index[4] *227:7 4.34337e-05
9 index[4] *257:13 0.000465858
10 *219:8 *281:9 0.000506876
11 *219:8 *282:49 0.00010398
12 *350:A3 *219:8 9.22998e-06
13 *356:A2 *219:8 6.50827e-06
14 *360:A1 *219:8 4.92317e-06
15 *360:A2 *219:8 1.73458e-05
16 *7:41 *219:8 0.000345115
17 *17:23 *219:8 1.25735e-05
18 *54:26 *219:8 7.82257e-06
*RES
1 *500:ZN *219:6 10 
2 *219:6 *219:8 73.5357 
3 *219:8 *219:10 5 
4 *219:10 index[4] 118.036 
*END

*D_NET *220 0.00313581
*CONN
*P index[5] O
*I *501:ZN O *D INV_X1
*CAP
1 index[5] 1.09704e-05
2 *501:ZN 3.4182e-05
3 *220:8 0.000702669
4 *220:6 0.000725881
5 index[5] *239:7 1.3917e-06
6 *220:8 *239:7 0.000224959
7 *220:8 *267:25 3.33034e-05
8 grant[18] index[5] 2.60945e-06
9 grant[18] *220:8 3.25815e-05
10 *292:A *220:8 0.000110935
11 *313:A2 *220:8 1.68643e-06
12 *314:A4 *220:8 8.30282e-06
13 *327:A4 *220:8 2.92804e-05
14 *415:A1 *220:8 3.86345e-05
15 *416:A1 *220:8 0.000114661
16 *464:A2 *220:8 1.92742e-05
17 *465:A3 *220:8 0
18 *465:A4 *220:8 1.62865e-05
19 *7:12 *220:8 0
20 *16:14 *220:8 4.79358e-06
21 *16:16 *220:8 4.97191e-06
22 *79:12 *220:8 3.40142e-05
23 *121:10 *220:8 0
24 *155:35 *220:8 0.000369084
25 *159:12 *220:8 0
26 *194:14 *220:8 8.43215e-07
27 *194:23 *220:8 1.03315e-06
28 *197:23 *220:8 0.00037427
29 *217:12 *220:8 0.00023919
*RES
1 *501:ZN *220:6 8.64286 
2 *220:6 *220:8 114.75 
3 *220:8 index[5] 1.46429 
*END

*D_NET *221 0.00517049
*CONN
*P req[0] I
*I *286:A2 I *D NOR4_X1
*CAP
1 req[0] 0.00103574
2 *286:A2 2.03073e-05
3 *221:9 0.000277551
4 *221:7 0.000257243
5 *221:5 0.00103574
6 *286:A2 *310:A1 8.43215e-07
7 *286:A2 *232:25 0
8 *286:A2 *254:45 1.90459e-05
9 *286:A2 *254:51 2.39679e-06
10 *221:5 *305:A4 0
11 *221:5 *224:5 0.000647133
12 *221:5 *257:13 9.48373e-05
13 *221:5 *281:22 0
14 *221:9 *476:A2 8.08825e-05
15 *221:9 *222:17 0.000634125
16 *221:9 *257:17 7.17667e-05
17 *221:9 *284:9 3.01738e-06
18 index[4] *221:5 0.000563188
19 *452:A2 *221:9 1.27467e-05
20 *474:A2 *221:5 4.02344e-05
21 *1:6 *286:A2 1.73125e-05
22 *22:45 *221:9 0.000145066
23 *108:10 *221:9 0.000132613
24 *153:8 *221:9 7.86947e-05
*RES
1 req[0] *221:5 164.036 
2 *221:5 *221:7 5 
3 *221:7 *221:9 50.4643 
4 *221:9 *286:A2 12.75 
*END

*D_NET *222 0.00892758
*CONN
*P req[10] I
*I *476:A2 I *D AND3_X2
*I *304:A4 I *D NOR4_X1
*I *449:A2 I *D NOR2_X1
*CAP
1 req[10] 1.09001e-05
2 *476:A2 2.96317e-05
3 *304:A4 0
4 *449:A2 4.52897e-05
5 *222:21 6.1376e-05
6 *222:17 0.000346269
7 *222:15 0.000300551
8 *222:13 0.00152372
9 *222:11 0.00153462
10 *449:A2 *449:A1 3.67659e-05
11 *449:A2 *223:35 8.43215e-07
12 *476:A2 *257:17 7.63866e-05
13 *222:11 *226:5 1.3917e-06
14 *222:11 *252:17 2.59224e-06
15 *222:13 *256:13 0.00212937
16 *222:17 *255:21 0
17 *222:17 *257:17 0.000915347
18 *222:17 *257:21 3.76667e-06
19 *222:21 *449:A1 2.39679e-06
20 *222:21 *223:35 8.2465e-06
21 grant[21] *222:11 7.63742e-06
22 grant[3] *222:11 3.73676e-06
23 *440:A3 *222:17 1.55671e-05
24 *476:A1 *476:A2 7.72537e-06
25 *503:A4 *476:A2 2.75346e-06
26 *19:8 *476:A2 0
27 *19:8 *222:21 1.25189e-05
28 *22:45 *222:17 2.91785e-06
29 *72:23 *222:17 7.6038e-05
30 *72:40 *222:17 0.000155394
31 *72:62 *222:17 7.772e-05
32 *108:14 *476:A2 2.07793e-05
33 *153:8 *222:17 1.40516e-05
34 *162:8 *222:17 0.00050364
35 *164:22 *222:11 7.72537e-06
36 *184:12 *222:13 0.000274907
37 *221:9 *476:A2 8.08825e-05
38 *221:9 *222:17 0.000634125
*RES
1 req[10] *222:11 11.5 
2 *222:11 *222:13 68.88 
3 *222:13 *222:15 5 
4 *222:15 *222:17 75.3572 
5 *222:17 *222:21 7.25 
6 *222:21 *449:A2 10.75 
7 *222:21 *304:A4 5 
8 *222:17 *476:A2 16.5714 
*END

*D_NET *223 0.00661567
*CONN
*P req[11] I
*I *452:A1 I *D AND2_X1
*I *475:A I *D INV_X1
*I *304:A3 I *D NOR4_X1
*I *449:A1 I *D NOR2_X1
*CAP
1 req[11] 6.3143e-05
2 *452:A1 3.13182e-05
3 *475:A 0
4 *304:A3 0
5 *449:A1 4.46005e-05
6 *223:41 5.73086e-05
7 *223:35 5.34462e-05
8 *223:33 0.00035791
9 *223:27 0.000586358
10 *223:23 0.000300504
11 *223:21 0.000695239
12 *223:19 0.000703952
13 *223:17 0.000444341
14 *223:15 0.000498771
15 *449:A1 *304:A2 2.30081e-05
16 *449:A1 *503:A2 1.87369e-06
17 *223:15 *234:11 4.48581e-06
18 *223:15 *242:13 9.11962e-06
19 *223:15 *246:11 2.2287e-05
20 *223:15 *250:7 3.48262e-06
21 *223:15 *250:9 3.01642e-06
22 *223:15 *252:17 2.48069e-05
23 *223:17 *234:13 0.000779375
24 *223:17 *246:11 8.46892e-05
25 *223:17 *275:13 0
26 *223:17 *275:21 1.43238e-06
27 *223:17 *275:25 4.0392e-05
28 *223:17 *275:27 1.34931e-05
29 *223:21 *403:A1 0
30 *223:21 *418:A1 7.72792e-06
31 *223:21 *234:13 7.58809e-05
32 *223:21 *262:13 0.000138796
33 *223:21 *262:21 0
34 *223:21 *262:32 0
35 *223:21 *275:27 5.50692e-06
36 *223:21 *282:43 0
37 *223:33 *285:10 5.25493e-06
38 *223:41 *257:17 2.37916e-06
39 *297:A4 *223:21 0
40 *375:A2 *223:21 0
41 *379:A2 *223:21 4.62738e-05
42 *379:A4 *223:21 7.72792e-06
43 *379:A4 *223:27 0.000134194
44 *401:A2 *223:21 9.57492e-07
45 *402:A2 *223:21 0
46 *403:A2 *223:27 0.000136931
47 *434:A *223:17 5.50692e-06
48 *449:A2 *449:A1 3.67659e-05
49 *449:A2 *223:35 8.43215e-07
50 *452:A2 *452:A1 7.66675e-07
51 *456:A *223:21 0
52 *459:B *223:21 0
53 *461:C1 *223:27 0.000131824
54 *463:A4 *223:17 7.16188e-07
55 *466:A3 *223:27 0.00027488
56 *476:A1 *223:41 2.94435e-05
57 *488:A2 *223:33 6.81425e-05
58 *503:A1 *449:A1 7.72792e-06
59 *3:14 *223:17 6.20863e-05
60 *12:10 *223:21 0
61 *19:8 *223:33 1.11106e-05
62 *19:8 *223:35 4.16476e-06
63 *99:8 *223:17 2.95773e-05
64 *108:10 *452:A1 2.60555e-05
65 *108:10 *223:33 4.83165e-05
66 *108:10 *223:35 1.87418e-05
67 *109:12 *223:41 1.55619e-05
68 *131:8 *223:27 0.000109016
69 *131:8 *223:33 6.73891e-05
70 *153:8 *452:A1 0.00012041
71 *153:8 *223:33 0
72 *157:8 *223:27 0
73 *157:8 *223:33 2.58538e-06
74 *185:8 *223:27 3.09511e-05
75 *185:8 *223:33 6.33099e-05
76 *188:20 *223:35 0
77 *205:8 *223:17 2.91444e-05
78 *222:21 *449:A1 2.39679e-06
79 *222:21 *223:35 8.2465e-06
*RES
1 req[11] *223:15 17.8571 
2 *223:15 *223:17 72.75 
3 *223:17 *223:19 0.928572 
4 *223:19 *223:21 81.75 
5 *223:21 *223:23 5 
6 *223:23 *223:27 48.8393 
7 *223:27 *223:33 44.9464 
8 *223:33 *223:35 4.75 
9 *223:35 *223:41 12.2857 
10 *223:41 *449:A1 11.9286 
11 *223:41 *304:A3 5 
12 *223:35 *475:A 5 
13 *223:33 *452:A1 21.3571 
*END

*D_NET *224 0.00363453
*CONN
*P req[12] I
*I *506:A2 I *D AND4_X1
*I *303:A2 I *D NOR4_X2
*CAP
1 req[12] 0.000891023
2 *506:A2 0
3 *303:A2 4.10248e-05
4 *224:13 0.00026433
5 *224:5 0.00111433
6 *303:A2 *303:A1 2.75346e-06
7 *303:A2 *243:35 4.78054e-06
8 *224:5 *228:5 2.93722e-05
9 *224:5 *276:25 0
10 *224:5 *277:5 0.000302201
11 *224:5 *281:13 3.52145e-05
12 *224:5 *281:22 6.71612e-06
13 *224:13 *243:35 2.43548e-06
14 *224:13 *265:17 0
15 *319:A2 *303:A2 1.30565e-05
16 *450:A1 *303:A2 1.91582e-05
17 *450:A1 *224:13 8.7296e-06
18 *506:A1 *303:A2 7.97351e-05
19 *506:A3 *303:A2 1.32348e-05
20 *506:A3 *224:13 2.75346e-06
21 *30:47 *224:13 1.87369e-06
22 *154:8 *303:A2 1.0884e-06
23 *154:8 *224:13 1.9695e-05
24 *188:20 *303:A2 4.11048e-05
25 *188:28 *303:A2 1.11792e-06
26 *195:12 *224:13 9.16656e-05
27 *221:5 *224:5 0.000647133
*RES
1 req[12] *224:5 136.036 
2 *224:5 *224:13 36.7857 
3 *224:13 *303:A2 22.5 
4 *224:13 *506:A2 5 
*END

*D_NET *225 0.0040094
*CONN
*P req[13] I
*I *319:A1 I *D AND3_X2
*I *303:A1 I *D NOR4_X2
*I *505:A I *D INV_X1
*CAP
1 req[13] 0.000503597
2 *319:A1 1.65081e-05
3 *303:A1 2.73342e-05
4 *505:A 1.24853e-05
5 *225:31 0.000103284
6 *225:25 0.00027352
7 *225:19 0.000364891
8 *225:15 0.000322232
9 *225:5 0.000654485
10 *225:5 *275:7 6.72524e-06
11 *225:15 *277:9 7.93012e-05
12 *225:19 *243:11 0.000151432
13 *225:19 *243:15 8.59042e-05
14 *225:25 *243:15 0.000279281
15 grant[39] *225:5 0
16 grant[40] *225:5 2.05033e-06
17 grant[43] *225:5 2.60945e-06
18 grant[46] *225:5 0
19 grant[46] *225:15 5.98472e-05
20 *303:A2 *303:A1 2.75346e-06
21 *319:A2 *303:A1 3.56012e-06
22 *319:A3 *319:A1 8.43215e-07
23 *116:8 *303:A1 7.19036e-06
24 *116:8 *319:A1 3.73261e-06
25 *116:8 *225:25 3.07303e-05
26 *116:12 *303:A1 7.88859e-05
27 *127:10 *225:25 6.39357e-05
28 *127:10 *225:31 5.44779e-05
29 *130:10 *505:A 9.62051e-07
30 *130:10 *225:31 8.95483e-06
31 *138:10 *225:31 0
32 *154:8 *303:A1 7.88859e-05
33 *155:14 *225:25 6.20835e-05
34 *155:14 *225:31 2.94435e-05
35 *188:28 *303:A1 2.24822e-06
36 *188:28 *225:25 8.90859e-05
37 *188:30 *225:19 0.000351623
38 *188:30 *225:25 0.000116834
39 *191:26 *319:A1 2.30003e-05
40 *191:26 *505:A 4.21607e-06
41 *191:26 *225:31 1.93824e-05
42 *191:30 *225:25 2.14856e-06
43 *196:8 *225:15 2.89323e-05
*RES
1 req[13] *225:5 51.4286 
2 *225:5 *225:15 30.1429 
3 *225:15 *225:19 33.6786 
4 *225:19 *225:25 42.3929 
5 *225:25 *225:31 13.7143 
6 *225:31 *505:A 6.25 
7 *225:31 *303:A1 20.5714 
8 *225:25 *319:A1 12.25 
*END

*D_NET *226 0.00654853
*CONN
*P req[14] I
*I *303:A4 I *D NOR4_X2
*I *316:A2 I *D NOR2_X1
*I *320:A1 I *D NAND2_X1
*CAP
1 req[14] 0.000307831
2 *303:A4 1.12654e-05
3 *316:A2 0
4 *320:A1 2.33293e-05
5 *226:47 7.14242e-05
6 *226:39 0.000206603
7 *226:35 0.000279462
8 *226:27 0.000411611
9 *226:23 0.00043749
10 *226:15 0.000290867
11 *226:5 0.0004406
12 *303:A4 *227:25 3.5628e-06
13 *320:A1 *316:A1 4.30918e-06
14 *320:A1 *227:31 3.98778e-05
15 *226:5 *230:7 2.60945e-06
16 *226:5 *230:9 1.0614e-05
17 *226:5 *273:15 4.91874e-05
18 *226:5 *273:17 0.000187137
19 *226:5 *273:45 2.75346e-06
20 *226:15 *235:17 1.65202e-06
21 *226:15 *277:13 8.6788e-05
22 *226:23 *235:17 9.14429e-05
23 *226:23 *235:25 1.39412e-05
24 *226:23 *248:13 3.69479e-05
25 *226:23 *260:9 5.3433e-05
26 *226:27 *385:A 0
27 *226:27 *400:A1 0
28 *226:39 *259:15 9.45383e-05
29 *226:47 *316:A1 2.39679e-06
30 *226:47 *227:25 1.24652e-05
31 *226:47 *265:17 1.48912e-05
32 *307:A1 *226:35 6.65423e-06
33 *319:A2 *303:A4 2.33422e-06
34 *319:A2 *226:47 2.83077e-06
35 *420:A3 *226:15 0.000126018
36 *429:A3 *226:15 3.97419e-05
37 *450:A1 *226:39 6.28503e-05
38 *466:A4 *226:35 0
39 *482:B2 *226:15 4.65045e-05
40 *493:A2 *226:35 1.46625e-05
41 *495:A2 *226:35 5.38515e-05
42 *496:A *226:35 0.000259318
43 *506:A3 *226:39 6.32202e-06
44 *18:12 *226:39 0.000269346
45 *20:8 *226:47 0
46 *30:14 *320:A1 5.08916e-05
47 *30:14 *226:47 1.91954e-06
48 *61:17 *226:35 9.00517e-05
49 *94:10 *226:27 3.41642e-05
50 *154:8 *226:35 1.4293e-06
51 *164:22 *226:5 0.000678305
52 *165:12 *226:23 0.000179679
53 *166:10 *226:23 7.64942e-06
54 *186:10 *226:27 0
55 *186:12 *226:27 0
56 *188:28 *303:A4 5.32858e-06
57 *191:10 *226:35 0.000592683
58 *191:10 *226:39 7.66985e-06
59 *191:26 *226:39 2.42344e-05
60 *199:8 *226:5 0.000323749
61 *206:23 *226:27 0.000430911
62 *206:33 *226:15 2.38316e-05
63 *206:33 *226:23 7.98822e-06
64 *206:35 *226:15 7.19036e-06
65 *222:11 *226:5 1.3917e-06
*RES
1 req[14] *226:5 63.5357 
2 *226:5 *226:15 29.1786 
3 *226:15 *226:23 36.9286 
4 *226:23 *226:27 45.25 
5 *226:27 *226:35 43.2143 
6 *226:35 *226:39 30.3572 
7 *226:39 *226:47 15.5357 
8 *226:47 *320:A1 9.75 
9 *226:47 *316:A2 5 
10 *226:39 *303:A4 6.5 
*END

*D_NET *227 0.00469269
*CONN
*P req[15] I
*I *303:A3 I *D NOR4_X2
*I *316:A1 I *D NOR2_X1
*I *321:A1 I *D NOR2_X1
*I *322:A1 I *D NAND2_X1
*CAP
1 req[15] 0.000196673
2 *303:A3 0
3 *316:A1 7.60268e-06
4 *321:A1 0
5 *322:A1 4.43473e-05
6 *227:31 0.000146966
7 *227:25 0.000173619
8 *227:21 9.52238e-05
9 *227:13 0.000585472
10 *227:11 0.000773645
11 *227:7 0.000416672
12 *322:A1 *243:35 0
13 *227:7 valid 2.05033e-06
14 *227:7 *257:11 9.66778e-05
15 *227:7 *257:13 4.88065e-05
16 *227:13 *259:5 0.000145205
17 *227:13 *259:11 4.80256e-05
18 *227:21 *243:27 5.99828e-06
19 *227:21 *243:35 1.37673e-05
20 *227:25 *243:35 6.93551e-05
21 *227:31 *243:35 0
22 grant[4] *227:13 0.00111577
23 grant[50] *227:13 0.000370463
24 grant[7] *227:7 4.69702e-07
25 index[4] *227:7 4.34337e-05
26 *303:A4 *227:25 3.5628e-06
27 *319:A2 *227:25 3.19164e-07
28 *319:A2 *227:31 1.18547e-06
29 *320:A1 *316:A1 4.30918e-06
30 *320:A1 *227:31 3.98778e-05
31 *321:A2 *322:A1 1.21774e-06
32 *321:A2 *227:31 5.11118e-06
33 *322:A2 *322:A1 8.90117e-06
34 *322:A2 *227:31 0
35 *30:43 *227:21 1.90192e-05
36 *30:47 *227:13 1.26998e-05
37 *154:8 *227:21 1.36837e-05
38 *188:28 *227:21 2.68238e-05
39 *188:28 *227:25 1.73151e-05
40 *195:12 *227:21 1.72426e-05
41 *211:21 *227:7 0.000106317
42 *214:20 *227:11 0
43 *226:47 *316:A1 2.39679e-06
44 *226:47 *227:25 1.24652e-05
*RES
1 req[15] *227:7 36.0357 
2 *227:7 *227:11 24.9286 
3 *227:11 *227:13 103.25 
4 *227:13 *227:21 15.7143 
5 *227:21 *227:25 9.03572 
6 *227:25 *227:31 11.7857 
7 *227:31 *322:A1 9.75 
8 *227:31 *321:A1 5 
9 *227:25 *316:A1 6.25 
10 *227:21 *303:A3 5 
*END

*D_NET *228 0.00254571
*CONN
*P req[16] I
*I *315:A2 I *D AND4_X1
*I *298:A4 I *D NOR4_X2
*CAP
1 req[16] 0.000455283
2 *315:A2 3.798e-06
3 *298:A4 2.2734e-05
4 *228:9 0.000370583
5 *228:5 0.000799334
6 *298:A4 *298:A3 7.72792e-06
7 *298:A4 *312:A2 3.37286e-06
8 *298:A4 *231:30 5.04575e-06
9 *228:5 *231:5 0.00034604
10 *228:5 *276:25 0
11 *228:5 *277:5 0.000302201
12 *228:9 *312:A1 0
13 *228:9 *231:9 0
14 *228:9 *231:30 3.21609e-05
15 *228:9 *238:17 4.82722e-05
16 *315:A1 *298:A4 1.58475e-05
17 *329:A2 *298:A4 8.64288e-07
18 *329:A2 *315:A2 2.75346e-06
19 *331:A2 *298:A4 2.82508e-05
20 *331:A2 *228:9 6.70982e-05
21 *25:12 *315:A2 4.97191e-06
22 *224:5 *228:5 2.93722e-05
*RES
1 req[16] *228:5 76.0357 
2 *228:5 *228:9 41.2143 
3 *228:9 *298:A4 13.3571 
4 *228:9 *315:A2 10.75 
*END

*D_NET *229 0.00528618
*CONN
*P req[17] I
*I *311:A I *D INV_X1
*I *298:A3 I *D NOR4_X2
*I *329:A1 I *D AND3_X1
*CAP
1 req[17] 0.000319412
2 *311:A 0
3 *298:A3 2.64851e-05
4 *329:A1 6.51026e-05
5 *229:15 0.000113254
6 *229:13 5.68029e-05
7 *229:9 0.000753602
8 *229:7 0.000718466
9 *229:5 0.000319412
10 *298:A3 *312:A2 1.74934e-05
11 *329:A1 *298:A2 1.73151e-05
12 *329:A1 *477:B2 7.11918e-06
13 *229:5 *241:5 8.69815e-06
14 *229:5 *252:21 0.000726289
15 *229:9 *267:9 1.30094e-05
16 *229:13 *312:A2 8.43215e-07
17 *229:15 *312:A2 6.74466e-06
18 index[3] *229:5 0.000247796
19 *298:A4 *298:A3 7.72792e-06
20 *315:A1 *329:A1 2.58428e-06
21 *315:A1 *229:15 1.8031e-05
22 *329:A2 *329:A1 5.34233e-06
23 *331:A2 *298:A3 4.16464e-05
24 *482:A *229:9 3.93544e-05
25 *25:12 *298:A3 3.19164e-07
26 *155:35 *229:9 5.41015e-05
27 *158:10 *298:A3 1.39047e-05
28 *169:18 *229:9 0
29 *178:27 *229:9 6.87816e-06
30 *180:12 *229:9 0.000138356
31 *183:25 *329:A1 7.55805e-05
32 *183:25 *229:13 1.04623e-05
33 *183:25 *229:15 6.84742e-06
34 *202:12 *229:9 0
35 *204:10 *229:9 0.0012642
36 *218:16 *229:5 0.000182997
*RES
1 req[17] *229:5 68.0357 
2 *229:5 *229:7 5 
3 *229:7 *229:9 95.9286 
4 *229:9 *229:13 9.25 
5 *229:13 *229:15 3.25 
6 *229:15 *329:A1 14.7857 
7 *229:15 *298:A3 19.0357 
8 *229:13 *311:A 5 
*END

*D_NET *230 0.00436117
*CONN
*P req[18] I
*I *477:B1 I *D OAI21_X1
*I *312:A2 I *D NOR2_X1
*I *298:A2 I *D NOR4_X2
*I *330:A1 I *D NAND2_X1
*CAP
1 req[18] 1.09704e-05
2 *477:B1 4.8392e-05
3 *312:A2 4.96863e-05
4 *298:A2 1.09695e-05
5 *330:A1 1.26458e-05
6 *230:43 0.000109174
7 *230:32 4.01782e-05
8 *230:21 0.000423883
9 *230:19 0.000603455
10 *230:9 0.000517803
11 *230:7 0.000318442
12 *298:A2 *298:A1 5.33113e-06
13 *298:A2 *477:B2 1.19839e-05
14 *312:A2 *298:A1 1.87637e-06
15 *312:A2 *312:A1 3.09143e-06
16 *312:A2 *477:B2 4.21607e-06
17 *477:B1 *477:B2 1.58583e-05
18 *477:B1 *238:17 5.42208e-05
19 *230:7 *234:11 1.3917e-06
20 *230:9 *234:11 2.83289e-05
21 *230:9 *242:13 5.42579e-06
22 *230:9 *273:15 0.000442595
23 *230:9 *273:17 4.63318e-06
24 *230:9 *275:13 0.0001172
25 *230:19 *289:A1 3.09143e-06
26 *230:19 *407:A2 3.04684e-06
27 *230:19 *407:A3 1.8031e-05
28 *230:19 *417:A 1.73666e-05
29 *230:19 *429:A1 5.90251e-06
30 *230:19 *262:13 0
31 *230:19 *273:15 0
32 *230:19 *273:17 7.11429e-05
33 *230:19 *273:45 5.37908e-05
34 *230:19 *275:25 0
35 *230:21 *238:17 0.000540765
36 *230:21 *272:13 1.96924e-05
37 *230:32 *238:17 5.33077e-05
38 *230:43 *477:B2 6.50827e-06
39 *230:43 *238:17 4.18985e-05
40 grant[46] *312:A2 0
41 *291:A4 *230:21 1.75123e-05
42 *298:A3 *312:A2 1.74934e-05
43 *298:A4 *312:A2 3.37286e-06
44 *315:A1 *312:A2 3.31276e-05
45 *315:A4 *477:B1 3.93465e-06
46 *329:A1 *298:A2 1.73151e-05
47 *329:A2 *477:B1 3.55958e-05
48 *377:A1 *230:21 4.76429e-07
49 *421:A *230:9 4.1923e-05
50 *463:A1 *230:9 1.68643e-06
51 *463:A2 *230:9 1.36959e-06
52 *463:A2 *230:19 2.6096e-06
53 *490:B2 *230:21 3.51493e-05
54 *2:10 *230:21 7.59477e-06
55 *3:51 *230:21 3.41845e-05
56 *3:60 *230:21 1.07288e-06
57 *3:82 *230:21 6.03486e-06
58 *4:8 *230:21 1.4293e-06
59 *13:10 *330:A1 2.39679e-06
60 *25:12 *312:A2 0
61 *84:12 *230:21 2.34596e-05
62 *91:12 *230:21 7.92374e-05
63 *97:6 *230:19 7.56614e-05
64 *141:10 *230:21 0.000105156
65 *159:12 *230:21 6.494e-05
66 *159:12 *230:32 9.26282e-06
67 *159:12 *230:43 1.90574e-06
68 *165:16 *230:21 1.72234e-05
69 *181:16 *330:A1 1.73151e-05
70 *183:25 *330:A1 5.62375e-06
71 *191:34 *312:A2 0
72 *226:5 *230:7 2.60945e-06
73 *226:5 *230:9 1.0614e-05
74 *229:13 *312:A2 8.43215e-07
75 *229:15 *312:A2 6.74466e-06
*RES
1 req[18] *230:7 1.46429 
2 *230:7 *230:9 51.1429 
3 *230:9 *230:19 33.9643 
4 *230:19 *230:21 56.5715 
5 *230:21 *330:A1 11.75 
6 *230:21 *230:32 2.96429 
7 *230:32 *298:A2 11.75 
8 *230:32 *230:43 2.28572 
9 *230:43 *312:A2 16.25 
10 *230:43 *477:B1 17.2143 
*END

*D_NET *231 0.0038979
*CONN
*P req[19] I
*I *331:A1 I *D NOR2_X1
*I *298:A1 I *D NOR4_X2
*I *477:B2 I *D OAI21_X1
*I *332:A1 I *D AND2_X1
*I *312:A1 I *D NOR2_X1
*CAP
1 req[19] 0.00050451
2 *331:A1 0
3 *298:A1 3.77246e-06
4 *477:B2 6.29522e-05
5 *332:A1 8.01248e-05
6 *312:A1 4.62594e-05
7 *231:43 6.67246e-05
8 *231:30 0.000127101
9 *231:24 6.83826e-05
10 *231:9 0.000363977
11 *231:5 0.000800821
12 *332:A1 *238:17 0.000250741
13 *231:5 *233:7 2.75442e-05
14 *231:5 *240:5 0
15 *231:5 *276:23 2.93598e-05
16 *231:5 *276:25 5.97201e-05
17 *231:24 *243:11 4.5563e-05
18 *231:30 *238:17 0.000163235
19 *231:30 *243:11 7.72792e-06
20 grant[25] *332:A1 2.14856e-06
21 *298:A2 *298:A1 5.33113e-06
22 *298:A2 *477:B2 1.19839e-05
23 *298:A4 *231:30 5.04575e-06
24 *312:A2 *298:A1 1.87637e-06
25 *312:A2 *312:A1 3.09143e-06
26 *312:A2 *477:B2 4.21607e-06
27 *315:A1 *298:A1 2.75346e-06
28 *315:A1 *231:30 5.37415e-05
29 *329:A1 *477:B2 7.11918e-06
30 *329:A2 *477:B2 1.50296e-06
31 *329:A3 *477:B2 1.39839e-06
32 *331:A2 *312:A1 5.94167e-07
33 *331:A2 *332:A1 1.21105e-05
34 *331:A2 *231:24 3.56012e-06
35 *331:A2 *231:30 3.5969e-06
36 *477:B1 *477:B2 1.58583e-05
37 *25:12 *312:A1 1.46689e-05
38 *27:8 *332:A1 7.72792e-06
39 *27:14 *332:A1 0.000152442
40 *158:10 *312:A1 7.18184e-06
41 *158:10 *332:A1 1.04109e-06
42 *159:12 *477:B2 4.37715e-05
43 *160:8 *231:24 2.97531e-05
44 *169:18 *312:A1 0.00011763
45 *169:18 *231:9 0.000293883
46 *191:34 *231:24 3.23723e-07
47 *191:34 *231:30 3.23723e-07
48 *228:5 *231:5 0.00034604
49 *228:9 *312:A1 0
50 *228:9 *231:9 0
51 *228:9 *231:30 3.21609e-05
52 *230:43 *477:B2 6.50827e-06
*RES
1 req[19] *231:5 72.5357 
2 *231:5 *231:9 37.8214 
3 *231:9 *312:A1 17.1071 
4 *231:9 *231:24 9.25 
5 *231:24 *231:30 14.8214 
6 *231:30 *332:A1 24.5714 
7 *231:30 *231:43 5 
8 *231:43 *477:B2 23.4643 
9 *231:43 *298:A1 5.75 
10 *231:24 *331:A1 5 
*END

*D_NET *232 0.00509757
*CONN
*P req[1] I
*I *286:A1 I *D NOR4_X1
*I *310:A1 I *D NOR4_X2
*I *440:A1 I *D NAND3_X1
*CAP
1 req[1] 4.05184e-05
2 *286:A1 0
3 *310:A1 6.06095e-05
4 *440:A1 3.61715e-05
5 *232:36 6.06095e-05
6 *232:25 0.000294518
7 *232:13 0.00103522
8 *232:11 0.000817391
9 *310:A1 *442:A 1.77822e-05
10 *310:A1 *243:43 0
11 *310:A1 *243:49 5.62265e-05
12 *310:A1 *254:51 2.20474e-05
13 *310:A1 *254:64 4.49892e-05
14 *440:A1 *257:17 1.37205e-05
15 *232:11 *252:13 6.68441e-05
16 *232:13 *244:13 0.000186815
17 *232:13 *254:33 7.66905e-06
18 *232:13 *265:5 6.50252e-05
19 *232:25 *243:43 7.72792e-06
20 *232:25 *255:19 7.72067e-05
21 *232:25 *257:17 1.79373e-05
22 grant[26] *232:11 3.82997e-06
23 grant[28] *232:11 9.99885e-06
24 grant[2] *232:11 8.6104e-06
25 grant[2] *232:13 2.76994e-06
26 grant[31] *232:13 0.0012061
27 grant[32] *232:13 0.000576688
28 *286:A2 *310:A1 8.43215e-07
29 *286:A2 *232:25 0
30 *317:A1 *232:25 0
31 *317:A4 *232:25 1.83053e-06
32 *318:A4 *232:13 7.77781e-06
33 *318:A4 *232:25 3.7481e-05
34 *440:A2 *440:A1 2.24074e-05
35 *440:A3 *440:A1 6.99525e-06
36 *445:A2 *232:13 2.75346e-06
37 *445:A2 *232:25 3.97695e-06
38 *493:A2 *232:13 9.09239e-06
39 *499:B1 *232:13 5.8617e-05
40 *1:6 *232:25 0
41 *17:23 *232:13 6.96231e-05
42 *18:14 *232:13 1.49912e-05
43 *19:14 *232:25 1.1499e-05
44 *22:45 *232:25 4.3456e-06
45 *105:6 *232:13 8.73051e-05
46 *173:8 *232:25 0
47 *188:10 *440:A1 7.65127e-06
48 *188:10 *232:25 1.33584e-05
*RES
1 req[1] *232:11 15.6786 
2 *232:11 *232:13 140.25 
3 *232:13 *232:25 36.8572 
4 *232:25 *440:A1 15 
5 *232:25 *232:36 5 
6 *232:36 *310:A1 23.7143 
7 *232:36 *286:A1 5 
*END

*D_NET *233 0.00565209
*CONN
*P req[20] I
*I *328:A2 I *D AND4_X1
*I *301:A4 I *D NOR4_X4
*CAP
1 req[20] 5.20879e-05
2 *328:A2 0
3 *301:A4 5.11072e-05
4 *233:41 0.000269586
5 *233:31 0.000406313
6 *233:15 0.000424548
7 *233:9 0.000878537
8 *233:7 0.000693911
9 *301:A4 *301:A3 8.64288e-07
10 *301:A4 *234:21 2.16072e-07
11 *233:7 *236:7 1.51705e-05
12 *233:7 *240:5 0
13 *233:9 *242:13 0.000338325
14 *233:9 *273:9 0.000248863
15 *233:9 *275:9 0.000968334
16 *233:15 *269:15 0
17 *233:31 *266:9 6.62182e-05
18 *233:41 *234:21 4.32144e-07
19 grant[49] *233:15 0.000159073
20 grant[52] *233:15 6.20168e-05
21 *328:A1 *301:A4 0
22 *328:A1 *233:41 6.56185e-06
23 *328:A4 *301:A4 2.52965e-06
24 *328:A4 *233:41 8.43215e-07
25 *408:A1 *233:41 4.88663e-05
26 *408:A2 *233:41 4.04937e-05
27 *410:A3 *233:15 9.57492e-07
28 *410:A4 *233:15 4.69702e-07
29 *410:A4 *233:31 3.33008e-05
30 *482:A *233:41 9.62051e-07
31 *482:C2 *233:31 2.64041e-05
32 *483:A *233:31 1.68643e-06
33 *483:B2 *233:31 4.21746e-05
34 *5:10 *233:31 3.96328e-05
35 *16:14 *301:A4 8.26038e-06
36 *84:12 *233:41 4.48548e-05
37 *94:10 *301:A4 5.31666e-06
38 *94:10 *233:41 1.61803e-06
39 *163:18 *233:31 7.16188e-07
40 *163:18 *233:41 2.33537e-05
41 *163:20 *233:15 0.000437775
42 *163:20 *233:31 1.73916e-05
43 *164:20 *233:41 6.37281e-06
44 *176:10 *233:31 0
45 *178:27 *233:31 6.33603e-05
46 *178:31 *233:31 5.79846e-05
47 *198:6 *233:15 2.70833e-06
48 *204:10 *233:31 9.54451e-06
49 *206:23 *301:A4 1.49007e-05
50 *206:33 *233:41 4.9902e-05
51 *231:5 *233:7 2.75442e-05
*RES
1 req[20] *233:7 11.5357 
2 *233:7 *233:9 89.1429 
3 *233:9 *233:15 47.3572 
4 *233:15 *233:31 46.7857 
5 *233:31 *233:41 29.9643 
6 *233:41 *301:A4 10.6786 
7 *233:41 *328:A2 5 
*END

*D_NET *234 0.00364333
*CONN
*P req[21] I
*I *337:A1 I *D AND3_X1
*I *324:A I *D INV_X1
*I *301:A3 I *D NOR4_X4
*CAP
1 req[21] 4.53745e-05
2 *337:A1 4.7817e-05
3 *324:A 0
4 *301:A3 5.35071e-05
5 *234:21 6.01373e-05
6 *234:17 0.000208905
7 *234:13 0.000645292
8 *234:11 0.000536208
9 *234:11 *238:9 0.000118829
10 *234:11 *242:13 2.73238e-06
11 *234:11 *253:9 0.000117493
12 *234:13 *246:13 0
13 *234:13 *250:9 0.000630357
14 *234:13 *258:5 8.33308e-06
15 *234:13 *262:5 0
16 *234:13 *282:27 0
17 *234:17 *249:9 3.34133e-05
18 *301:A4 *301:A3 8.64288e-07
19 *301:A4 *234:21 2.16072e-07
20 *337:A2 *337:A1 5.31486e-05
21 *337:A3 *337:A1 8.43215e-07
22 *432:A2 *234:13 0
23 *432:A3 *234:13 0
24 *486:A2 *301:A3 6.28291e-06
25 *34:10 *337:A1 5.09411e-05
26 *34:10 *234:17 5.41015e-05
27 *36:29 *234:17 1.70857e-05
28 *94:10 *337:A1 2.52965e-06
29 *163:18 *337:A1 7.34199e-06
30 *186:12 *337:A1 4.32144e-07
31 *204:8 *234:13 7.24558e-06
32 *206:23 *301:A3 3.80969e-05
33 *206:33 *301:A3 4.21607e-06
34 *206:33 *234:21 1.68643e-06
35 *223:15 *234:11 4.48581e-06
36 *223:17 *234:13 0.000779375
37 *223:21 *234:13 7.58809e-05
38 *230:7 *234:11 1.3917e-06
39 *230:9 *234:11 2.83289e-05
40 *233:41 *234:21 4.32144e-07
*RES
1 req[21] *234:11 19.3929 
2 *234:11 *234:13 88.75 
3 *234:13 *234:17 22.2143 
4 *234:17 *234:21 5.75 
5 *234:21 *301:A3 11.3571 
6 *234:21 *324:A 5 
7 *234:17 *337:A1 16.4286 
*END

*D_NET *235 0.00411033
*CONN
*P req[22] I
*I *301:A2 I *D NOR4_X4
*I *325:A2 I *D NOR2_X1
*I *339:A2 I *D NAND3_X1
*CAP
1 req[22] 0.000185534
2 *301:A2 0
3 *325:A2 0
4 *339:A2 3.14247e-05
5 *235:25 7.47555e-05
6 *235:19 5.12979e-05
7 *235:17 0.00066415
8 *235:15 0.000656183
9 *235:13 0.000185534
10 *235:13 *236:9 2.06516e-05
11 *235:13 *238:9 0.000384013
12 *235:13 *252:17 0.000346798
13 *235:13 *253:9 0.00035418
14 *235:13 *273:9 3.28571e-07
15 *235:17 *407:A4 0
16 grant[14] *235:13 3.12145e-06
17 grant[22] *235:13 1.3917e-06
18 grant[25] *235:13 1.10432e-05
19 grant[63] *235:17 2.90828e-05
20 grant[9] *235:17 0.000155416
21 index[2] *235:13 0.000193752
22 *420:A3 *235:17 8.8833e-05
23 *420:A4 *235:17 2.40703e-05
24 *456:C2 *339:A2 2.39679e-06
25 *3:47 *235:17 3.37286e-06
26 *36:29 *235:17 4.36039e-05
27 *36:29 *235:25 1.68785e-05
28 *36:38 *339:A2 5.12483e-05
29 *91:12 *235:17 2.30003e-05
30 *91:21 *235:17 0.000140401
31 *164:22 *235:17 0.00014883
32 *165:12 *339:A2 2.1173e-05
33 *165:12 *235:25 3.84674e-05
34 *165:34 *235:13 2.35353e-05
35 *202:8 *235:17 2.68997e-05
36 *206:35 *235:17 1.9241e-06
37 *226:15 *235:17 1.65202e-06
38 *226:23 *235:17 9.14429e-05
39 *226:23 *235:25 1.39412e-05
*RES
1 req[22] *235:13 46.7857 
2 *235:13 *235:15 5 
3 *235:15 *235:17 93.75 
4 *235:17 *235:19 0.928572 
5 *235:19 *235:25 6.92857 
6 *235:25 *339:A2 10.6786 
7 *235:25 *325:A2 5 
8 *235:19 *301:A2 5 
*END

*D_NET *236 0.00602183
*CONN
*P req[23] I
*I *341:A1 I *D AND2_X1
*I *338:A I *D INV_X1
*I *456:C1 I *D AOI211_X1
*I *325:A1 I *D NOR2_X1
*I *301:A1 I *D NOR4_X4
*CAP
1 req[23] 2.71698e-05
2 *341:A1 0
3 *338:A 0
4 *456:C1 4.18893e-05
5 *325:A1 4.28582e-05
6 *301:A1 0
7 *236:43 7.64721e-05
8 *236:30 0.000128168
9 *236:21 0.00021976
10 *236:13 0.000719168
11 *236:11 0.000550135
12 *236:9 0.000429803
13 *236:7 0.000456973
14 *325:A1 *247:13 7.38522e-05
15 *456:C1 *262:13 0
16 *236:7 *240:5 3.83909e-06
17 *236:7 *244:7 4.48581e-06
18 *236:9 *252:13 0.000333033
19 *236:9 *264:9 0.000431405
20 *236:9 *273:9 3.04869e-05
21 *236:13 *242:17 5.39615e-05
22 *236:21 *237:9 0.000488056
23 *236:21 *248:13 2.51374e-05
24 *236:21 *262:13 0
25 *236:30 *262:13 0
26 *236:43 *262:13 0
27 grant[13] *236:13 0.000294096
28 grant[14] *236:9 8.66746e-06
29 index[2] *236:9 0.000419745
30 *327:A3 *236:21 7.85957e-05
31 *456:B *456:C1 2.30029e-05
32 *456:C2 *456:C1 2.18316e-05
33 *456:C2 *236:43 1.21774e-06
34 *16:14 *236:21 8.08641e-05
35 *36:29 *236:21 6.56007e-06
36 *36:29 *236:30 6.10735e-05
37 *36:29 *236:43 2.39679e-06
38 *36:38 *236:43 2.05143e-05
39 *156:22 *236:13 0.000111112
40 *180:16 *236:13 0.000718081
41 *183:10 *456:C1 1.59582e-06
42 *233:7 *236:7 1.51705e-05
43 *235:13 *236:9 2.06516e-05
*RES
1 req[23] *236:7 8.53572 
2 *236:7 *236:9 74.8929 
3 *236:9 *236:11 5 
4 *236:11 *236:13 91.75 
5 *236:13 *236:21 38.4643 
6 *236:21 *301:A1 5 
7 *236:21 *236:30 6.67857 
8 *236:30 *325:A1 19.3214 
9 *236:30 *236:43 4.75 
10 *236:43 *456:C1 10.75 
11 *236:43 *338:A 5 
12 *236:30 *341:A1 5 
*END

*D_NET *237 0.0069247
*CONN
*P req[24] I
*I *336:A1 I *D AND4_X1
*I *300:A4 I *D NOR4_X2
*CAP
1 req[24] 0.000573425
2 *336:A1 7.42934e-06
3 *300:A4 9.92606e-06
4 *237:13 3.7015e-05
5 *237:9 0.000852357
6 *237:7 0.000832697
7 *237:5 0.000573425
8 *237:5 *267:5 0.000315481
9 *237:9 *299:A1 4.26902e-05
10 *237:9 *371:A 1.14404e-05
11 *237:9 *245:9 0.000420759
12 *237:9 *248:9 4.31563e-05
13 *237:9 *248:13 6.85252e-05
14 *237:9 *248:15 1.94292e-05
15 *237:9 *249:9 0.00183503
16 *237:9 *249:15 9.30875e-05
17 *237:9 *260:9 0
18 grant[16] *237:5 2.20269e-05
19 grant[38] *237:5 0
20 index[0] *237:5 0.000456935
21 *302:A4 *237:9 3.18528e-05
22 *326:A2 *237:9 3.49296e-05
23 *336:A2 *300:A4 8.43215e-07
24 *336:A2 *237:9 1.36811e-05
25 *336:A2 *237:13 4.21607e-06
26 *336:A3 *300:A4 2.61469e-06
27 *15:27 *237:9 0.000118152
28 *16:14 *237:9 5.3197e-07
29 *169:12 *300:A4 4.77786e-06
30 *169:12 *336:A1 2.70833e-06
31 *169:12 *237:13 7.49745e-06
32 *170:17 *237:13 0
33 *236:21 *237:9 0.000488056
*RES
1 req[24] *237:5 94.5358 
2 *237:5 *237:7 5 
3 *237:7 *237:9 138 
4 *237:9 *237:13 7.25 
5 *237:13 *300:A4 6.25 
6 *237:13 *336:A1 5.92857 
*END

*D_NET *238 0.00642305
*CONN
*P req[25] I
*I *300:A3 I *D NOR4_X2
*I *333:A3 I *D NOR3_X1
*I *346:A1 I *D AND4_X1
*CAP
1 req[25] 3.00671e-05
2 *300:A3 2.03946e-05
3 *333:A3 1.63193e-05
4 *346:A1 8.20832e-05
5 *238:25 0.000129035
6 *238:21 0.000169692
7 *238:17 0.000468817
8 *238:15 0.000350152
9 *238:13 0.000477654
10 *238:11 0.000477654
11 *238:9 0.000330818
12 *238:7 0.000360885
13 *300:A3 *300:A1 7.00066e-05
14 *300:A3 *240:9 2.49497e-05
15 *333:A3 *300:A1 0
16 *346:A1 *300:A1 0
17 *346:A1 *239:25 0
18 *346:A1 *240:44 0
19 *238:9 *253:9 7.67039e-05
20 *238:9 *273:9 9.02094e-05
21 *238:9 *275:9 7.64942e-06
22 *238:9 *282:11 0.000118037
23 *238:13 *256:7 0.000100263
24 *238:21 *300:A1 4.97191e-06
25 *238:21 *239:17 0.000200192
26 *238:21 *239:23 1.19839e-05
27 *238:21 *247:9 4.08575e-05
28 *238:25 *300:A1 7.72792e-06
29 *238:25 *239:23 4.84089e-05
30 *238:25 *239:25 2.16072e-07
31 grant[10] *238:7 1.51678e-05
32 grant[1] *238:7 2.05033e-06
33 grant[29] *238:7 0
34 *332:A1 *238:17 0.000250741
35 *398:A1 *238:13 3.31362e-05
36 *410:A3 *238:13 2.83077e-06
37 *477:B1 *238:17 5.42208e-05
38 *2:10 *238:17 4.6368e-05
39 *3:82 *238:13 2.23871e-06
40 *14:76 *346:A1 0.000108536
41 *14:76 *238:21 1.11435e-06
42 *14:76 *238:25 1.21752e-05
43 *27:37 *238:17 0
44 *45:12 *346:A1 1.53657e-05
45 *85:27 *238:13 2.08943e-05
46 *152:39 *238:13 0
47 *156:22 *238:13 0.000775811
48 *158:10 *238:17 0
49 *167:12 *300:A3 9.58352e-06
50 *170:25 *238:13 0
51 *180:16 *238:13 6.74466e-06
52 *228:9 *238:17 4.82722e-05
53 *230:21 *238:17 0.000540765
54 *230:32 *238:17 5.33077e-05
55 *230:43 *238:17 4.18985e-05
56 *231:30 *238:17 0.000163235
57 *234:11 *238:9 0.000118829
58 *235:13 *238:9 0.000384013
*RES
1 req[25] *238:7 8.53572 
2 *238:7 *238:9 47.0714 
3 *238:9 *238:11 5 
4 *238:11 *238:13 74.25 
5 *238:13 *238:15 5 
6 *238:15 *238:17 54.5357 
7 *238:17 *238:21 24.75 
8 *238:21 *238:25 10.25 
9 *238:25 *346:A1 21.6071 
10 *238:25 *333:A3 11.6071 
11 *238:21 *300:A3 18.6429 
*END

*D_NET *239 0.00404267
*CONN
*P req[26] I
*I *300:A2 I *D NOR4_X2
*I *333:A2 I *D NOR3_X1
*I *345:A2 I *D NOR2_X1
*I *347:A I *D INV_X1
*CAP
1 req[26] 0.000106726
2 *300:A2 0
3 *333:A2 0
4 *345:A2 0
5 *347:A 2.14179e-05
6 *239:25 5.41543e-05
7 *239:23 8.35746e-05
8 *239:17 0.000320249
9 *239:15 0.000416445
10 *239:9 0.000615081
11 *239:7 0.000574774
12 *239:15 *245:5 1.73477e-05
13 *239:17 *245:5 0.000207835
14 *239:17 *247:9 0
15 *239:23 *300:A1 1.19839e-05
16 *239:23 *240:36 2.92594e-05
17 *239:23 *240:38 2.75346e-06
18 *239:25 *240:38 4.93865e-05
19 *239:25 *240:44 2.39679e-06
20 grant[14] *239:7 1.13246e-05
21 grant[49] *239:9 4.11048e-05
22 grant[58] *239:15 0.000327184
23 grant[58] *239:17 7.64054e-05
24 grant[59] *239:15 0.000256952
25 index[5] *239:7 1.3917e-06
26 *346:A1 *239:25 0
27 *45:12 *347:A 6.21255e-06
28 *169:12 *239:17 8.64288e-07
29 *169:12 *239:23 4.32144e-07
30 *200:10 *239:9 0.000121376
31 *217:12 *239:7 0.000200275
32 *220:8 *239:7 0.000224959
33 *238:21 *239:17 0.000200192
34 *238:21 *239:23 1.19839e-05
35 *238:25 *239:23 4.84089e-05
36 *238:25 *239:25 2.16072e-07
*RES
1 req[26] *239:7 26.5357 
2 *239:7 *239:9 48.4286 
3 *239:9 *239:15 36.0714 
4 *239:15 *239:17 44.8572 
5 *239:17 *239:23 8.10715 
6 *239:23 *239:25 4.75 
7 *239:25 *347:A 17.2857 
8 *239:25 *345:A2 5 
9 *239:23 *333:A2 5 
10 *239:17 *300:A2 5 
*END

*D_NET *240 0.0035334
*CONN
*P req[27] I
*I *333:A1 I *D NOR3_X1
*I *345:A1 I *D NOR2_X1
*I *349:A1 I *D NOR3_X1
*I *350:A1 I *D AND3_X1
*I *300:A1 I *D NOR4_X2
*CAP
1 req[27] 0.000794801
2 *333:A1 0
3 *345:A1 7.54016e-06
4 *349:A1 3.08872e-05
5 *350:A1 2.02789e-05
6 *300:A1 4.62924e-05
7 *240:44 0.000124905
8 *240:38 0.000108163
9 *240:36 6.79607e-05
10 *240:9 0.000235085
11 *240:5 0.000942517
12 *300:A1 *248:9 5.33077e-05
13 *349:A1 *282:49 2.72417e-06
14 *240:5 *244:7 4.48581e-06
15 *240:5 *248:5 0
16 *240:5 *249:5 0.000222147
17 *240:5 *273:7 2.49124e-05
18 *240:5 *276:23 0
19 *240:5 *276:25 0
20 *240:9 *248:9 0.000435249
21 *300:A3 *300:A1 7.00066e-05
22 *300:A3 *240:9 2.49497e-05
23 *333:A3 *300:A1 0
24 *346:A1 *300:A1 0
25 *346:A1 *240:44 0
26 *349:A2 *345:A1 0
27 *349:A2 *349:A1 2.39679e-06
28 *349:A2 *240:44 9.99492e-06
29 *349:A3 *240:44 2.52965e-06
30 *350:A2 *349:A1 2.81877e-05
31 *350:A2 *350:A1 2.76662e-05
32 *350:A2 *240:44 3.09411e-06
33 *350:A3 *349:A1 1.82068e-05
34 *481:A1 *350:A1 1.43352e-05
35 *481:A1 *240:44 5.99561e-06
36 *14:76 *300:A1 5.34233e-06
37 *40:59 *349:A1 5.10087e-06
38 *45:12 *240:44 1.17749e-05
39 *152:35 *349:A1 7.94852e-06
40 *167:12 *240:9 1.83151e-05
41 *169:12 *240:36 2.89658e-05
42 *169:12 *240:38 1.11753e-05
43 *169:12 *240:44 3.83453e-06
44 *231:5 *240:5 0
45 *233:7 *240:5 0
46 *236:7 *240:5 3.83909e-06
47 *238:21 *300:A1 4.97191e-06
48 *238:25 *300:A1 7.72792e-06
49 *239:23 *300:A1 1.19839e-05
50 *239:23 *240:36 2.92594e-05
51 *239:23 *240:38 2.75346e-06
52 *239:25 *240:38 4.93865e-05
53 *239:25 *240:44 2.39679e-06
*RES
1 req[27] *240:5 96.5358 
2 *240:5 *240:9 28.3214 
3 *240:9 *300:A1 27.75 
4 *240:9 *240:36 11.9286 
5 *240:36 *240:38 4.75 
6 *240:38 *240:44 9.10715 
7 *240:44 *350:A1 8.25 
8 *240:44 *349:A1 19.7143 
9 *240:38 *345:A1 5.92857 
10 *240:36 *333:A1 5 
*END

*D_NET *241 0.00559633
*CONN
*P req[28] I
*I *299:A4 I *D NOR4_X4
*I *344:A2 I *D AND4_X1
*CAP
1 req[28] 0.000492143
2 *299:A4 4.56166e-05
3 *344:A2 1.59986e-05
4 *241:11 6.16152e-05
5 *241:9 0.000691762
6 *241:7 0.000691762
7 *241:5 0.000492143
8 *299:A4 *299:A3 1.48969e-05
9 *299:A4 *342:A 3.51654e-06
10 *299:A4 *243:15 1.25215e-05
11 *344:A2 *342:A 2.51631e-06
12 *241:5 *251:5 0.000483735
13 *241:5 *252:21 0.00108234
14 *241:9 *242:21 5.61609e-05
15 *241:9 *247:13 0.000555361
16 *241:9 *260:9 0.000119608
17 *327:A4 *241:9 3.78828e-05
18 *344:A4 *344:A2 8.43215e-07
19 *372:A2 *241:9 1.4762e-05
20 *15:8 *299:A4 5.48932e-05
21 *35:12 *241:9 1.36841e-05
22 *36:19 *241:9 5.63279e-06
23 *166:10 *241:9 0.000304139
24 *171:10 *299:A4 8.70497e-06
25 *171:10 *241:9 0.000279969
26 *179:23 *241:9 0
27 *191:30 *344:A2 9.01846e-07
28 *191:34 *299:A4 3.67946e-05
29 *191:34 *344:A2 7.72537e-06
30 *229:5 *241:5 8.69815e-06
*RES
1 req[28] *241:5 100.536 
2 *241:5 *241:7 5 
3 *241:7 *241:9 102.714 
4 *241:9 *241:11 5 
5 *241:11 *344:A2 6.75 
6 *241:11 *299:A4 22.4643 
*END

*D_NET *242 0.00509068
*CONN
*P req[29] I
*I *299:A3 I *D NOR4_X4
*I *342:A I *D INV_X1
*I *356:A1 I *D NAND3_X1
*CAP
1 req[29] 0.000361551
2 *299:A3 3.52294e-05
3 *342:A 2.77376e-05
4 *356:A1 0.000105909
5 *242:32 0.000105888
6 *242:21 0.000331745
7 *242:17 0.000713157
8 *242:15 0.000530243
9 *242:13 0.000361551
10 *356:A1 *244:21 6.28291e-06
11 *242:13 *246:11 1.62363e-05
12 *242:13 *275:9 0.000102866
13 *242:13 *275:13 1.32348e-05
14 grant[13] *242:17 0.000280229
15 *299:A4 *299:A3 1.48969e-05
16 *299:A4 *342:A 3.51654e-06
17 *326:A1 *242:17 1.0303e-05
18 *326:A2 *242:17 8.64288e-07
19 *327:A4 *242:17 1.27666e-06
20 *327:A4 *242:21 1.87059e-05
21 *344:A1 *299:A3 0
22 *344:A2 *342:A 2.51631e-06
23 *356:A3 *356:A1 1.88327e-05
24 *478:A *299:A3 4.48636e-06
25 *478:A *342:A 3.80969e-05
26 *14:10 *242:21 7.22721e-05
27 *14:10 *242:32 1.52083e-06
28 *14:12 *242:21 5.34806e-05
29 *14:14 *242:21 2.3613e-05
30 *14:16 *242:21 2.79484e-05
31 *15:8 *299:A3 4.99928e-06
32 *15:8 *242:32 1.44264e-05
33 *35:12 *242:17 1.21774e-06
34 *44:12 *356:A1 0.000156225
35 *171:10 *299:A3 5.64001e-06
36 *171:10 *242:21 3.0428e-05
37 *171:10 *242:32 1.44264e-05
38 *181:16 *356:A1 2.56243e-06
39 *183:25 *356:A1 0.000125499
40 *191:34 *299:A3 4.12459e-06
41 *217:12 *242:17 0.000981213
42 *223:15 *242:13 9.11962e-06
43 *230:9 *242:13 5.42579e-06
44 *233:9 *242:13 0.000338325
45 *234:11 *242:13 2.73238e-06
46 *236:13 *242:17 5.39615e-05
47 *241:9 *242:21 5.61609e-05
*RES
1 req[29] *242:13 48.0714 
2 *242:13 *242:15 5 
3 *242:15 *242:17 91.75 
4 *242:17 *242:21 31.7143 
5 *242:21 *356:A1 28.25 
6 *242:21 *242:32 5 
7 *242:32 *342:A 13.75 
8 *242:32 *299:A3 14.7857 
*END

*D_NET *243 0.00539839
*CONN
*P req[2] I
*I *468:A2 I *D AND3_X1
*I *310:A3 I *D NOR4_X2
*I *286:A4 I *D NOR4_X1
*I *439:A2 I *D NOR2_X1
*CAP
1 req[2] 0.000317612
2 *468:A2 8.30652e-06
3 *310:A3 0
4 *286:A4 5.48227e-05
5 *439:A2 7.44287e-06
6 *243:49 9.40271e-05
7 *243:43 9.85219e-05
8 *243:37 0.000139146
9 *243:35 0.000294659
10 *243:27 0.000346782
11 *243:15 0.000378526
12 *243:11 0.00042247
13 *243:5 0.000477759
14 *286:A4 *254:45 4.7156e-06
15 *286:A4 *254:51 6.1103e-06
16 *439:A2 *254:51 6.82202e-07
17 *439:A2 *254:64 7.16188e-07
18 *243:27 *281:9 1.77976e-06
19 *243:37 *257:17 0.000106908
20 *243:43 *257:17 2.51177e-05
21 *243:49 *442:A 1.53357e-05
22 *243:49 *254:64 9.55318e-06
23 *243:49 *283:15 0.000158063
24 grant[46] *243:5 0.000236178
25 grant[48] *243:5 0.000235841
26 grant[48] *243:11 0.00013006
27 grant[4] *243:27 0.000128748
28 *299:A4 *243:15 1.25215e-05
29 *303:A2 *243:35 4.78054e-06
30 *310:A1 *243:43 0
31 *310:A1 *243:49 5.62265e-05
32 *310:A4 *243:43 4.9296e-05
33 *322:A1 *243:35 0
34 *440:A2 *286:A4 4.02148e-05
35 *440:A3 *286:A4 0
36 *453:A *243:35 0
37 *453:B1 *243:37 8.14262e-05
38 *460:A3 *243:27 0
39 *468:A1 *468:A2 2.39679e-06
40 *468:A1 *243:43 6.38328e-07
41 *468:A3 *243:37 1.27467e-05
42 *468:A3 *243:43 4.18985e-05
43 *506:A3 *243:35 2.16072e-07
44 *22:45 *468:A2 4.32144e-07
45 *22:45 *243:43 3.09143e-06
46 *23:23 *243:37 5.6134e-05
47 *30:47 *243:27 1.86809e-06
48 *30:47 *243:35 6.38328e-07
49 *32:6 *243:35 0
50 *109:12 *243:37 2.71569e-05
51 *138:10 *243:27 3.44218e-07
52 *160:8 *243:5 1.36959e-06
53 *160:8 *243:11 9.58267e-05
54 *188:10 *243:43 5.20238e-07
55 *188:20 *243:35 0.000281599
56 *188:28 *243:27 9.92609e-05
57 *188:30 *243:11 2.52965e-06
58 *191:30 *243:15 9.82807e-05
59 *191:34 *243:11 0
60 *191:34 *243:15 4.88458e-05
61 *213:8 *243:49 9.05228e-06
62 *224:13 *243:35 2.43548e-06
63 *225:19 *243:11 0.000151432
64 *225:19 *243:15 8.59042e-05
65 *225:25 *243:15 0.000279281
66 *227:21 *243:27 5.99828e-06
67 *227:21 *243:35 1.37673e-05
68 *227:25 *243:35 6.93551e-05
69 *227:31 *243:35 0
70 *231:24 *243:11 4.5563e-05
71 *231:30 *243:11 7.72792e-06
72 *232:25 *243:43 7.72792e-06
*RES
1 req[2] *243:5 51.4286 
2 *243:5 *243:11 28.7143 
3 *243:11 *243:15 49.25 
4 *243:15 *243:27 22.5357 
5 *243:27 *243:35 36.9286 
6 *243:35 *243:37 14.5 
7 *243:37 *243:43 14.3929 
8 *243:43 *243:49 18.3929 
9 *243:49 *439:A2 5.75 
10 *243:49 *286:A4 11.6786 
11 *243:43 *310:A3 5 
12 *243:37 *468:A2 10.75 
*END

*D_NET *244 0.00493631
*CONN
*P req[30] I
*I *299:A2 I *D NOR4_X4
*I *343:A2 I *D NOR2_X1
*I *358:A I *D INV_X1
*CAP
1 req[30] 7.13935e-06
2 *299:A2 6.01028e-06
3 *343:A2 0
4 *358:A 2.94922e-05
5 *244:21 7.30124e-05
6 *244:17 7.85063e-05
7 *244:13 0.000501469
8 *244:11 0.000472493
9 *244:9 0.000377826
10 *244:7 0.000384965
11 *299:A2 *248:9 2.94455e-05
12 *358:A *245:30 2.18289e-05
13 *244:9 valid 0.000294437
14 *244:9 *252:13 0.000195737
15 *244:9 *255:11 0.000118037
16 *244:13 *265:5 0.00102717
17 *244:17 *248:9 0.000142695
18 *244:21 *299:A1 8.43215e-07
19 *244:21 *245:28 5.35481e-05
20 *244:21 *245:30 8.43215e-07
21 grant[32] *244:13 0.000588239
22 grant[40] *244:9 2.05208e-05
23 grant[43] *244:9 0.000118037
24 *356:A1 *244:21 6.28291e-06
25 *14:10 *244:21 6.48216e-07
26 *15:8 *299:A2 2.49497e-05
27 *15:8 *244:17 0.000143235
28 *44:12 *358:A 2.18289e-05
29 *183:25 *244:21 1.28122e-06
30 *232:13 *244:13 0.000186815
31 *236:7 *244:7 4.48581e-06
32 *240:5 *244:7 4.48581e-06
*RES
1 req[30] *244:7 6.03571 
2 *244:7 *244:9 52.5 
3 *244:9 *244:11 5 
4 *244:11 *244:13 95.75 
5 *244:13 *244:17 12.7143 
6 *244:17 *244:21 10.75 
7 *244:21 *358:A 9.75 
8 *244:21 *343:A2 5 
9 *244:17 *299:A2 11.6071 
*END

*D_NET *245 0.00383656
*CONN
*P req[31] I
*I *343:A1 I *D NOR2_X1
*I *362:A1 I *D AND2_X1
*I *361:A1 I *D NOR3_X1
*I *299:A1 I *D NOR4_X4
*CAP
1 req[31] 0.000629692
2 *343:A1 0
3 *362:A1 3.77785e-05
4 *361:A1 1.31876e-05
5 *299:A1 2.25704e-05
6 *245:30 0.000104055
7 *245:28 0.000107954
8 *245:9 0.000169024
9 *245:5 0.00072128
10 *299:A1 *248:9 1.58752e-05
11 *245:5 *279:7 7.2323e-05
12 *245:9 *248:9 5.42535e-05
13 grant[59] *245:5 0.000209097
14 grant[62] *245:5 4.97987e-05
15 *336:A2 *245:9 8.06346e-05
16 *358:A *245:30 2.18289e-05
17 *361:A2 *361:A1 8.04708e-06
18 *361:A2 *245:30 1.38665e-05
19 *362:A2 *362:A1 4.96432e-05
20 *478:A *361:A1 1.87637e-06
21 *478:A *362:A1 5.44368e-05
22 *478:A *245:28 3.66992e-05
23 *478:A *245:30 0.000104893
24 *14:72 *245:9 0.000192838
25 *40:19 *362:A1 2.8028e-05
26 *44:12 *245:30 4.4683e-06
27 *155:23 *362:A1 1.68643e-06
28 *168:12 *362:A1 2.74864e-05
29 *169:12 *245:5 0.000252153
30 *170:17 *245:5 0
31 *183:25 *299:A1 7.21602e-06
32 *212:28 *245:5 0
33 *237:9 *299:A1 4.26902e-05
34 *237:9 *245:9 0.000420759
35 *239:15 *245:5 1.73477e-05
36 *239:17 *245:5 0.000207835
37 *244:21 *299:A1 8.43215e-07
38 *244:21 *245:28 5.35481e-05
39 *244:21 *245:30 8.43215e-07
*RES
1 req[31] *245:5 95.0358 
2 *245:5 *245:9 27.6429 
3 *245:9 *299:A1 14.0357 
4 *245:9 *245:28 13.4286 
5 *245:28 *245:30 9.75 
6 *245:30 *361:A1 6.67857 
7 *245:30 *362:A1 21.8571 
8 *245:28 *343:A1 5 
*END

*D_NET *246 0.00285067
*CONN
*P req[32] I
*I *293:A4 I *D NOR4_X2
*I *354:A1 I *D NAND2_X1
*CAP
1 req[32] 0.000241915
2 *293:A4 5.49436e-05
3 *354:A1 0
4 *246:21 0.000111709
5 *246:13 0.000449572
6 *246:11 0.000634721
7 *293:A4 *353:A1 1.90208e-06
8 *293:A4 *353:A3 7.19036e-06
9 *293:A4 *247:26 3.65322e-06
10 *293:A4 *249:15 3.83453e-06
11 *293:A4 *249:17 3.19164e-07
12 *246:11 *250:7 3.82719e-06
13 *246:11 *275:13 3.22492e-05
14 *246:11 *279:9 0
15 *246:13 *266:5 0.000430865
16 *246:13 *270:5 0.000276145
17 *246:13 *274:5 2.15121e-05
18 *246:13 *282:13 2.90685e-06
19 *246:13 *282:27 0.000318849
20 *246:21 *249:9 1.23214e-06
21 *246:21 *249:15 5.20238e-07
22 *246:21 *282:27 0
23 *354:A2 *293:A4 1.04947e-05
24 *354:A2 *246:21 1.39047e-05
25 *355:A1 *293:A4 9.57492e-07
26 *355:A2 *293:A4 1.26998e-05
27 *432:A2 *246:13 1.02064e-05
28 *432:A3 *246:13 4.44109e-05
29 *176:8 *246:13 3.69132e-05
30 *178:23 *293:A4 0
31 *178:23 *246:21 0
32 *223:15 *246:11 2.2287e-05
33 *223:17 *246:11 8.46892e-05
34 *234:13 *246:13 0
35 *242:13 *246:11 1.62363e-05
*RES
1 req[32] *246:11 38.75 
2 *246:11 *246:13 70.25 
3 *246:13 *246:21 15.5714 
4 *246:21 *354:A1 5 
5 *246:21 *293:A4 11.6786 
*END

*D_NET *247 0.005011
*CONN
*P req[33] I
*I *293:A3 I *D NOR4_X2
*I *353:A3 I *D NOR3_X1
*I *372:A3 I *D NAND3_X1
*CAP
1 req[33] 0.000318162
2 *293:A3 0
3 *353:A3 1.33572e-05
4 *372:A3 7.01405e-06
5 *247:26 5.91465e-05
6 *247:15 5.28033e-05
7 *247:13 0.000711196
8 *247:11 0.000711196
9 *247:9 0.00033893
10 *247:7 0.000347643
11 *247:5 0.000326875
12 *353:A3 *353:A1 8.43215e-07
13 *353:A3 *248:15 2.94435e-05
14 *353:A3 *260:9 1.21072e-05
15 *372:A3 *249:17 3.09411e-06
16 *247:5 *285:12 2.19482e-05
17 *247:9 *285:12 0.000235012
18 *247:13 *282:43 1.2752e-06
19 *247:26 *249:17 2.04266e-05
20 grant[55] *247:5 0.000195983
21 grant[58] *247:5 0.000239303
22 grant[58] *247:9 4.3403e-05
23 *293:A4 *353:A3 7.19036e-06
24 *293:A4 *247:26 3.65322e-06
25 *325:A1 *247:13 7.38522e-05
26 *344:A3 *247:13 9.11243e-05
27 *355:A1 *353:A3 4.32144e-07
28 *355:A1 *247:26 0
29 *372:A1 *372:A3 8.43215e-07
30 *372:A2 *247:13 1.72426e-05
31 *6:19 *247:13 0.000141654
32 *6:34 *247:13 0.000219197
33 *14:76 *247:9 6.8241e-05
34 *15:8 *247:13 0
35 *44:12 *247:13 4.24423e-05
36 *62:10 *247:26 0
37 *64:12 *247:13 5.56936e-06
38 *155:27 *247:13 4.33329e-05
39 *171:10 *247:13 1.08425e-05
40 *179:23 *247:13 0
41 *238:21 *247:9 4.08575e-05
42 *239:17 *247:9 0
43 *241:9 *247:13 0.000555361
*RES
1 req[33] *247:5 51.4286 
2 *247:5 *247:7 0.928572 
3 *247:7 *247:9 50.3572 
4 *247:9 *247:11 5 
5 *247:11 *247:13 95.9286 
6 *247:13 *247:15 5 
7 *247:15 *372:A3 5.75 
8 *247:15 *247:26 5.67857 
9 *247:26 *353:A3 17.3571 
10 *247:26 *293:A3 5 
*END

*D_NET *248 0.00604811
*CONN
*P req[34] I
*I *353:A2 I *D NOR3_X1
*I *293:A2 I *D NOR4_X2
*I *371:A I *D INV_X1
*CAP
1 req[34] 0.000755066
2 *353:A2 0
3 *293:A2 0
4 *371:A 3.23792e-05
5 *248:15 6.42406e-05
6 *248:13 0.000384001
7 *248:11 0.000358684
8 *248:9 0.00042447
9 *248:7 0.000417925
10 *248:5 0.000755066
11 *371:A *260:9 1.05991e-05
12 *248:5 *249:5 0.00012767
13 *248:5 *252:11 9.91589e-06
14 *248:5 *264:7 4.15825e-06
15 *248:5 *269:7 0
16 *248:5 *280:7 0.000207574
17 *248:5 *284:5 0
18 *248:9 *249:9 9.08735e-05
19 *248:13 *260:9 7.36006e-05
20 *248:15 *260:9 1.21075e-05
21 *299:A1 *248:9 1.58752e-05
22 *299:A2 *248:9 2.94455e-05
23 *300:A1 *248:9 5.33077e-05
24 *302:A4 *248:9 0.000167188
25 *326:A2 *248:13 4.12796e-06
26 *334:A1 *248:9 0.000165351
27 *336:A2 *248:9 0.000138991
28 *353:A3 *248:15 2.94435e-05
29 *489:A1 *248:13 2.96198e-05
30 *14:12 *248:9 2.37916e-06
31 *14:14 *248:9 6.8187e-06
32 *14:16 *248:13 2.06398e-05
33 *14:72 *248:9 0.000192838
34 *15:8 *248:9 0.000147168
35 *15:27 *248:9 9.9131e-06
36 *15:27 *248:13 1.3143e-06
37 *16:14 *248:13 0.000401503
38 *16:43 *248:9 8.89684e-06
39 *16:43 *248:13 2.96955e-05
40 *35:12 *248:13 5.22392e-06
41 *36:19 *248:13 2.32073e-05
42 *166:10 *248:13 0
43 *226:23 *248:13 3.69479e-05
44 *236:21 *248:13 2.51374e-05
45 *237:9 *371:A 1.14404e-05
46 *237:9 *248:9 4.31563e-05
47 *237:9 *248:13 6.85252e-05
48 *237:9 *248:15 1.94292e-05
49 *240:5 *248:5 0
50 *240:9 *248:9 0.000435249
51 *244:17 *248:9 0.000142695
52 *245:9 *248:9 5.42535e-05
*RES
1 req[34] *248:5 96.0358 
2 *248:5 *248:7 5 
3 *248:7 *248:9 76.25 
4 *248:9 *248:11 0.75 
5 *248:11 *248:13 50.4643 
6 *248:13 *248:15 5 
7 *248:15 *371:A 13.6429 
8 *248:15 *293:A2 10 
9 *248:13 *353:A2 10 
*END

*D_NET *249 0.00617024
*CONN
*P req[35] I
*I *353:A1 I *D NOR3_X1
*I *293:A1 I *D NOR4_X2
*I *370:A I *D INV_X1
*I *374:A1 I *D NOR4_X2
*CAP
1 req[35] 0.00062192
2 *353:A1 1.60189e-05
3 *293:A1 0
4 *370:A 0
5 *374:A1 5.45994e-05
6 *249:17 9.90862e-05
7 *249:15 9.8028e-05
8 *249:9 0.000936085
9 *249:7 0.000866525
10 *249:5 0.00062192
11 *249:5 *273:7 2.49124e-05
12 *249:5 *280:7 0.000207574
13 *293:A4 *353:A1 1.90208e-06
14 *293:A4 *249:15 3.83453e-06
15 *293:A4 *249:17 3.19164e-07
16 *314:A3 *249:9 4.03601e-06
17 *314:A4 *249:9 1.00048e-05
18 *336:A2 *249:9 5.10087e-06
19 *353:A3 *353:A1 8.43215e-07
20 *354:A2 *353:A1 1.80259e-05
21 *354:A2 *249:15 8.41155e-06
22 *355:A1 *353:A1 2.85072e-05
23 *355:A2 *249:15 1.11258e-05
24 *372:A1 *374:A1 0
25 *372:A3 *249:17 3.09411e-06
26 *374:A2 *374:A1 4.73284e-06
27 *375:A1 *374:A1 0
28 *485:A1 *374:A1 1.27666e-06
29 *8:18 *374:A1 9.83877e-06
30 *8:18 *249:17 7.66905e-06
31 *13:10 *249:9 2.84292e-05
32 *13:31 *249:9 3.04165e-06
33 *36:23 *249:9 1.12115e-05
34 *36:29 *249:9 2.02906e-05
35 *62:10 *374:A1 1.91498e-06
36 *178:23 *249:15 0
37 *178:23 *249:17 0
38 *206:33 *249:9 1.55619e-05
39 *234:17 *249:9 3.34133e-05
40 *237:9 *249:9 0.00183503
41 *237:9 *249:15 9.30875e-05
42 *240:5 *249:5 0.000222147
43 *246:21 *249:9 1.23214e-06
44 *246:21 *249:15 5.20238e-07
45 *247:26 *249:17 2.04266e-05
46 *248:5 *249:5 0.00012767
47 *248:9 *249:9 9.08735e-05
*RES
1 req[35] *249:5 94.0358 
2 *249:5 *249:7 5 
3 *249:7 *249:9 123.071 
4 *249:9 *249:15 12.75 
5 *249:15 *249:17 5.75 
6 *249:17 *374:A1 11.3571 
7 *249:17 *370:A 5 
8 *249:15 *293:A1 5 
9 *249:9 *353:A1 12.75 
*END

*D_NET *250 0.00444859
*CONN
*P req[36] I
*I *369:A1 I *D AND3_X1
*I *296:A4 I *D NOR4_X4
*CAP
1 req[36] 1.90288e-05
2 *369:A1 1.50803e-05
3 *296:A4 8.71307e-06
4 *250:21 6.10705e-05
5 *250:17 0.000447615
6 *250:15 0.000585491
7 *250:9 0.000469319
8 *250:7 0.000313194
9 *250:7 *254:11 6.4294e-06
10 *250:9 *254:11 0.000333876
11 *250:9 *258:5 0.000135665
12 *250:15 *266:9 7.98429e-05
13 *250:17 *296:A3 0
14 *250:17 *383:A1 2.37137e-05
15 *250:17 *251:13 2.61408e-05
16 *250:17 *253:13 9.86536e-05
17 *250:21 *296:A3 0
18 grant[47] *250:17 0.000785497
19 grant[47] *250:21 2.86475e-06
20 grant[56] *250:17 2.99242e-05
21 *365:A1 *250:17 7.59759e-06
22 *366:A2 *250:17 2.87703e-06
23 *369:A2 *250:21 2.20082e-05
24 *381:A1 *250:17 4.00561e-05
25 *383:A2 *250:17 0
26 *3:10 *250:15 6.65388e-05
27 *192:18 *250:21 0
28 *207:12 *250:15 0.000226715
29 *223:15 *250:7 3.48262e-06
30 *223:15 *250:9 3.01642e-06
31 *234:13 *250:9 0.000630357
32 *246:11 *250:7 3.82719e-06
*RES
1 req[36] *250:7 2.64286 
2 *250:7 *250:9 60.25 
3 *250:9 *250:15 32.6429 
4 *250:15 *250:17 72.25 
5 *250:17 *250:21 5.35714 
6 *250:21 *296:A4 5.92857 
7 *250:21 *369:A1 6.60714 
*END

*D_NET *251 0.00311388
*CONN
*P req[37] I
*I *380:A I *D INV_X1
*I *366:A1 I *D NOR2_X1
*I *296:A3 I *D NOR4_X4
*CAP
1 req[37] 0.00072914
2 *380:A 0
3 *366:A1 0
4 *296:A3 8.26357e-05
5 *251:13 0.000119071
6 *251:11 0.000110398
7 *251:5 0.000803102
8 *296:A3 *296:A2 0
9 *296:A3 *261:9 0
10 *251:5 *296:A2 4.58338e-05
11 *251:5 *252:21 5.7886e-05
12 *251:5 *261:5 0.000607394
13 *251:11 *296:A1 0
14 *366:A2 *296:A3 2.16072e-07
15 *366:A2 *251:13 2.61408e-05
16 *369:A2 *296:A3 5.1802e-06
17 *381:A4 *251:11 0
18 *218:14 *296:A3 0
19 *218:14 *251:11 1.70033e-05
20 *241:5 *251:5 0.000483735
21 *250:17 *296:A3 0
22 *250:17 *251:13 2.61408e-05
23 *250:21 *296:A3 0
*RES
1 req[37] *251:5 126.536 
2 *251:5 *251:11 17.7143 
3 *251:11 *251:13 5.75 
4 *251:13 *296:A3 23.3929 
5 *251:13 *366:A1 5 
6 *251:11 *380:A 5 
*END

*D_NET *252 0.00839138
*CONN
*P req[38] I
*I *364:A I *D INV_X1
*I *296:A2 I *D NOR4_X4
*CAP
1 req[38] 2.60587e-05
2 *364:A 0
3 *296:A2 0.000124952
4 *252:21 0.00069411
5 *252:19 0.000569158
6 *252:17 0.00050298
7 *252:15 0.000509525
8 *252:13 0.000471365
9 *252:11 0.000490878
10 *296:A2 *296:A1 1.27666e-06
11 *296:A2 *261:5 2.64685e-05
12 *252:11 *264:7 9.35678e-06
13 *252:11 *264:9 2.38217e-06
14 *252:13 *264:9 3.43978e-05
15 *252:17 *253:9 0.00104416
16 grant[1] *252:17 3.06803e-06
17 grant[20] *252:17 0.000453633
18 grant[21] *252:17 2.12336e-05
19 grant[28] *252:13 6.03486e-06
20 grant[33] *252:17 8.58925e-06
21 grant[3] *252:17 7.4351e-06
22 index[2] *252:13 0.000213823
23 index[2] *252:17 4.57382e-06
24 *296:A3 *296:A2 0
25 *366:A2 *296:A2 0
26 *218:16 *296:A2 1.6777e-05
27 *218:16 *252:21 0.000257061
28 *222:11 *252:17 2.59224e-06
29 *223:15 *252:17 2.48069e-05
30 *229:5 *252:21 0.000726289
31 *232:11 *252:13 6.68441e-05
32 *235:13 *252:17 0.000346798
33 *236:9 *252:13 0.000333033
34 *241:5 *252:21 0.00108234
35 *244:9 *252:13 0.000195737
36 *248:5 *252:11 9.91589e-06
37 *251:5 *296:A2 4.58338e-05
38 *251:5 *252:21 5.7886e-05
*RES
1 req[38] *252:11 8.75 
2 *252:11 *252:13 69.25 
3 *252:13 *252:15 0.75 
4 *252:15 *252:17 80.5 
5 *252:17 *252:19 5 
6 *252:19 *252:21 120.25 
7 *252:21 *296:A2 21.6071 
8 *252:21 *364:A 5 
*END

*D_NET *253 0.00598141
*CONN
*P req[39] I
*I *383:A1 I *D NOR4_X2
*I *363:A I *D INV_X1
*I *296:A1 I *D NOR4_X4
*CAP
1 req[39] 2.20575e-05
2 *383:A1 3.05935e-05
3 *363:A 0
4 *296:A1 0.000201175
5 *253:17 0.000234382
6 *253:13 0.00068706
7 *253:11 0.00062326
8 *253:9 0.000281994
9 *253:7 0.000304051
10 *296:A1 *261:5 0.000145398
11 *296:A1 *281:9 0
12 *253:7 *256:7 1.02942e-05
13 *253:9 *282:11 0.000117498
14 grant[15] *296:A1 0
15 grant[23] *253:7 2.05033e-06
16 grant[56] *253:13 0.000768922
17 grant[61] *253:13 0.000546695
18 *296:A2 *296:A1 1.27666e-06
19 *365:A2 *296:A1 7.9624e-06
20 *381:A1 *296:A1 0
21 *383:A2 *296:A1 1.85529e-05
22 *383:A2 *383:A1 3.23723e-07
23 *383:A2 *253:17 5.4812e-06
24 *384:A1 *383:A1 6.50581e-06
25 *56:8 *383:A1 4.12911e-06
26 *57:10 *296:A1 4.177e-06
27 *170:25 *253:7 2.73238e-06
28 *218:16 *296:A1 7.23894e-05
29 *218:16 *253:13 0.000146223
30 *218:16 *253:17 2.13169e-05
31 *234:11 *253:9 0.000117493
32 *235:13 *253:9 0.00035418
33 *238:9 *253:9 7.67039e-05
34 *250:17 *383:A1 2.37137e-05
35 *250:17 *253:13 9.86536e-05
36 *251:11 *296:A1 0
37 *252:17 *253:9 0.00104416
*RES
1 req[39] *253:7 7.53572 
2 *253:7 *253:9 56.5715 
3 *253:9 *253:11 5 
4 *253:11 *253:13 112.25 
5 *253:13 *253:17 4.53572 
6 *253:17 *296:A1 41.8572 
7 *253:17 *363:A 5 
8 *253:13 *383:A1 19.5357 
*END

*D_NET *254 0.00629911
*CONN
*P req[3] I
*I *286:A3 I *D NOR4_X1
*I *442:A I *D INV_X1
*I *310:A2 I *D NOR4_X2
*I *439:A1 I *D NOR2_X1
*CAP
1 req[3] 0.000144537
2 *286:A3 0
3 *442:A 2.56677e-05
4 *310:A2 0
5 *439:A1 8.71307e-06
6 *254:64 4.75186e-05
7 *254:51 7.78452e-05
8 *254:45 0.000238087
9 *254:33 0.000473907
10 *254:23 0.000424875
11 *254:17 0.000559555
12 *254:15 0.000417781
13 *254:13 0.000653795
14 *254:11 0.000798331
15 *442:A *283:15 5.39412e-06
16 *254:11 *258:5 0.000341307
17 *254:33 *259:15 0
18 grant[25] *254:17 0
19 grant[26] *254:17 0
20 grant[2] *254:17 0.000652185
21 grant[2] *254:23 6.44653e-05
22 grant[2] *254:33 0.000218578
23 *286:A2 *254:45 1.90459e-05
24 *286:A2 *254:51 2.39679e-06
25 *286:A4 *254:45 4.7156e-06
26 *286:A4 *254:51 6.1103e-06
27 *302:A2 *254:23 1.19839e-05
28 *302:A4 *254:23 6.48216e-07
29 *306:A1 *254:33 0
30 *306:A3 *254:33 1.43544e-05
31 *307:A3 *254:33 4.94918e-05
32 *307:A4 *254:33 1.91498e-06
33 *307:A4 *254:45 1.87369e-06
34 *310:A1 *442:A 1.77822e-05
35 *310:A1 *254:51 2.20474e-05
36 *310:A1 *254:64 4.49892e-05
37 *314:A1 *254:23 3.20076e-06
38 *318:A1 *254:33 1.02315e-05
39 *439:A2 *254:51 6.82202e-07
40 *439:A2 *254:64 7.16188e-07
41 *440:A2 *254:51 1.7206e-05
42 *440:A3 *254:45 9.00648e-06
43 *466:A4 *254:45 0
44 *493:A2 *254:33 8.43376e-06
45 *1:6 *254:45 4.6613e-07
46 *12:86 *254:33 2.20426e-05
47 *13:31 *254:23 3.8632e-05
48 *17:8 *254:23 5.83729e-05
49 *17:8 *254:33 9.44743e-06
50 *17:23 *254:33 4.31185e-06
51 *18:14 *254:33 1.50541e-05
52 *18:18 *254:33 3.28594e-05
53 *22:16 *254:33 4.61652e-05
54 *22:16 *254:45 0.000124427
55 *22:20 *254:45 3.22376e-05
56 *27:8 *254:17 3.86595e-05
57 *27:8 *254:23 6.0887e-06
58 *103:14 *442:A 1.21774e-06
59 *122:10 *254:45 0
60 *151:8 *442:A 3.07768e-05
61 *161:10 *254:17 1.80259e-05
62 *206:19 *254:33 2.08098e-06
63 *209:10 *254:13 0
64 *213:8 *442:A 1.85643e-05
65 *213:8 *254:64 2.74429e-05
66 *214:20 *254:13 0
67 *232:13 *254:33 7.66905e-06
68 *243:49 *442:A 1.53357e-05
69 *243:49 *254:64 9.55318e-06
70 *250:7 *254:11 6.4294e-06
71 *250:9 *254:11 0.000333876
*RES
1 req[3] *254:11 37.7143 
2 *254:11 *254:13 57.25 
3 *254:13 *254:15 5 
4 *254:15 *254:17 60.75 
5 *254:17 *254:23 20.6072 
6 *254:23 *254:33 45.4286 
7 *254:33 *254:45 29.6072 
8 *254:45 *254:51 6.92857 
9 *254:51 *439:A1 5.92857 
10 *254:51 *254:64 9.39286 
11 *254:64 *310:A2 10 
12 *254:64 *442:A 15.0714 
13 *254:45 *286:A3 5 
*END

*D_NET *255 0.00692384
*CONN
*P req[40] I
*I *379:A1 I *D AND4_X1
*I *295:A4 I *D NOR4_X4
*CAP
1 req[40] 5.45905e-05
2 *379:A1 7.88087e-06
3 *295:A4 1.99526e-05
4 *255:21 0.000287596
5 *255:19 0.000494179
6 *255:13 0.00100802
7 *255:11 0.00082819
8 *295:A4 *376:A3 1.87369e-06
9 *295:A4 *256:19 4.11958e-05
10 *255:13 *263:7 9.68828e-05
11 *255:13 *265:5 0.00138746
12 *255:13 *265:15 2.2287e-05
13 *255:19 *265:15 3.91678e-05
14 *255:21 *256:17 1.33214e-05
15 *255:21 *256:19 0.000203389
16 grant[39] *255:11 2.05033e-06
17 grant[40] *255:11 2.05033e-06
18 index[2] *255:13 2.77939e-05
19 *318:A4 *255:19 0.000118568
20 *379:A2 *379:A1 1.19839e-05
21 *379:A3 *295:A4 2.39679e-06
22 *479:B2 *255:21 8.73645e-06
23 *499:B1 *255:13 2.76994e-06
24 *27:20 *255:13 5.44368e-05
25 *52:8 *255:13 0
26 *52:8 *255:19 0
27 *72:40 *255:21 1.34851e-06
28 *72:62 *255:21 4.48425e-06
29 *74:12 *255:21 3.3632e-05
30 *153:8 *255:21 0.000458616
31 *157:8 *295:A4 4.11958e-05
32 *157:8 *255:21 0.00114257
33 *173:8 *255:19 0
34 *173:16 *255:19 0
35 *181:16 *255:13 0.00029081
36 *181:20 *255:13 1.91681e-05
37 *222:17 *255:21 0
38 *232:25 *255:19 7.72067e-05
39 *244:9 *255:11 0.000118037
*RES
1 req[40] *255:11 16.8929 
2 *255:11 *255:13 131.75 
3 *255:13 *255:19 35.1786 
4 *255:19 *255:21 60.6429 
5 *255:21 *295:A4 13.5357 
6 *255:21 *379:A1 11.25 
*END

*D_NET *256 0.00800382
*CONN
*P req[41] I
*I *390:A1 I *D NAND2_X1
*I *376:A3 I *D NOR3_X1
*I *295:A3 I *D NOR4_X4
*CAP
1 req[41] 0.000388976
2 *390:A1 6.87197e-06
3 *376:A3 3.9107e-05
4 *295:A3 1.50354e-05
5 *256:19 0.000124976
6 *256:17 8.11629e-05
7 *256:13 0.000642276
8 *256:11 0.000743017
9 *256:7 0.000493175
10 *295:A3 *295:A1 1.14339e-05
11 *295:A3 *295:A2 0
12 *376:A3 *295:A2 0
13 *376:A3 *376:A1 3.65322e-06
14 *256:11 *269:9 0.000126048
15 *256:11 *269:15 0.000191682
16 *256:11 *276:13 0.000168336
17 *256:11 *280:9 1.99907e-05
18 *256:19 *295:A1 2.60713e-06
19 grant[12] *256:7 2.60945e-06
20 *295:A4 *376:A3 1.87369e-06
21 *295:A4 *256:19 4.11958e-05
22 *379:A3 *376:A3 3.93453e-05
23 *379:A3 *256:19 7.83485e-05
24 *479:B2 *390:A1 6.48216e-07
25 *479:B2 *256:17 9.91073e-06
26 *479:B2 *256:19 2.80805e-05
27 *72:8 *390:A1 7.19036e-06
28 *73:10 *256:19 5.62265e-05
29 *157:8 *295:A3 1.07633e-05
30 *157:8 *256:19 9.24246e-06
31 *162:8 *256:19 0
32 *170:25 *256:7 0
33 *180:16 *256:7 0
34 *184:12 *256:13 0.00212938
35 *205:10 *256:11 7.40178e-05
36 *222:13 *256:13 0.00212937
37 *238:13 *256:7 0.000100263
38 *253:7 *256:7 1.02942e-05
39 *255:21 *256:17 1.33214e-05
40 *255:21 *256:19 0.000203389
*RES
1 req[41] *256:7 49.0357 
2 *256:7 *256:11 25.75 
3 *256:11 *256:13 49.56 
4 *256:13 *256:17 5.78571 
5 *256:17 *256:19 14.5 
6 *256:19 *295:A3 12.3571 
7 *256:19 *376:A3 15.25 
8 *256:17 *390:A1 10.75 
*END

*D_NET *257 0.00741498
*CONN
*P req[42] I
*I *389:A2 I *D NOR2_X1
*I *392:A I *D INV_X1
*I *376:A2 I *D NOR3_X1
*I *295:A2 I *D NOR4_X4
*CAP
1 req[42] 0.000159913
2 *389:A2 8.62312e-06
3 *392:A 1.01916e-05
4 *376:A2 1.09083e-05
5 *295:A2 6.34498e-05
6 *257:25 0.000100512
7 *257:23 4.19456e-05
8 *257:21 0.000148225
9 *257:17 0.000440602
10 *257:15 0.000306601
11 *257:13 0.000949949
12 *257:11 0.00110986
13 *295:A2 *295:A1 9.62051e-07
14 *389:A2 *389:A1 2.52965e-06
15 *392:A *376:A1 0
16 *257:13 *474:A1 4.57414e-05
17 *257:17 *304:A1 4.62745e-06
18 *257:17 *284:9 2.41394e-05
19 *257:21 *394:A 0.000145183
20 *257:21 *258:30 2.51997e-05
21 *257:21 *258:41 5.48953e-05
22 *257:23 *258:30 2.51997e-05
23 *257:25 *376:A1 1.17438e-05
24 *257:25 *258:30 0.000124764
25 grant[6] *257:11 1.72405e-05
26 grant[7] *257:11 9.96502e-05
27 index[4] *257:13 0.000465858
28 *295:A3 *295:A2 0
29 *376:A3 *295:A2 0
30 *440:A1 *257:17 1.37205e-05
31 *440:A3 *257:17 4.26902e-05
32 *448:A2 *257:13 2.55387e-06
33 *451:A3 *257:17 1.48346e-05
34 *454:A1 *257:13 9.03317e-05
35 *457:A *257:21 2.47682e-05
36 *457:C1 *257:21 3.18816e-05
37 *474:A2 *257:13 9.99264e-06
38 *476:A1 *257:17 3.09002e-05
39 *476:A2 *257:17 7.63866e-05
40 *76:8 *257:21 4.17973e-05
41 *102:8 *257:17 1.04729e-05
42 *102:8 *257:21 5.1194e-06
43 *109:12 *257:17 2.56225e-05
44 *162:8 *295:A2 0.000106872
45 *162:8 *257:21 0.000584383
46 *162:8 *257:23 2.96955e-05
47 *162:8 *257:25 0.000145183
48 *184:8 *257:21 0
49 *187:8 *295:A2 2.52511e-05
50 *187:8 *257:25 1.90574e-06
51 *188:10 *257:17 0
52 *188:10 *257:21 0
53 *211:21 *257:13 0.000249942
54 *212:26 *257:13 3.50842e-05
55 *212:28 *257:13 3.35305e-05
56 *214:10 *257:13 0
57 *221:5 *257:13 9.48373e-05
58 *221:9 *257:17 7.17667e-05
59 *222:17 *257:17 0.000915347
60 *222:17 *257:21 3.76667e-06
61 *223:41 *257:17 2.37916e-06
62 *227:7 *257:11 9.66778e-05
63 *227:7 *257:13 4.88065e-05
64 *232:25 *257:17 1.79373e-05
65 *243:37 *257:17 0.000106908
66 *243:43 *257:17 2.51177e-05
*RES
1 req[42] *257:11 34 
2 *257:11 *257:13 144.25 
3 *257:13 *257:15 5 
4 *257:15 *257:17 62.6072 
5 *257:17 *257:21 32.2857 
6 *257:21 *257:23 1.60714 
7 *257:23 *257:25 7.71429 
8 *257:25 *295:A2 19.4286 
9 *257:25 *376:A2 11.25 
10 *257:23 *392:A 11.25 
11 *257:21 *389:A2 11.25 
*END

*D_NET *258 0.00510336
*CONN
*P req[43] I
*I *295:A1 I *D NOR4_X4
*I *394:A I *D INV_X1
*I *393:A1 I *D NOR3_X1
*I *389:A1 I *D NOR2_X1
*I *376:A1 I *D NOR3_X1
*CAP
1 req[43] 0.00038544
2 *295:A1 6.94467e-05
3 *394:A 5.35508e-05
4 *393:A1 7.56767e-06
5 *389:A1 7.02972e-06
6 *376:A1 9.87932e-06
7 *258:41 7.22155e-05
8 *258:30 5.63533e-05
9 *258:17 0.000102542
10 *258:13 0.00132217
11 *258:11 0.00120166
12 *258:5 0.000388821
13 *394:A *283:15 0
14 *258:5 *262:5 0.000305224
15 *295:A2 *295:A1 9.62051e-07
16 *295:A3 *295:A1 1.14339e-05
17 *376:A3 *376:A1 3.65322e-06
18 *379:A3 *295:A1 2.47688e-05
19 *389:A2 *389:A1 2.52965e-06
20 *392:A *376:A1 0
21 *393:A2 *258:30 4.24402e-05
22 *393:A2 *258:41 3.79464e-05
23 *393:A3 *389:A1 2.52965e-06
24 *393:A3 *393:A1 2.52965e-06
25 *395:A2 *394:A 0
26 *482:A *258:11 1.23137e-05
27 *157:8 *295:A1 2.55846e-05
28 *162:8 *295:A1 2.89028e-05
29 *178:27 *258:11 1.17438e-05
30 *184:8 *394:A 0
31 *187:8 *376:A1 3.01743e-06
32 *187:8 *394:A 3.01743e-06
33 *187:8 *258:30 3.01743e-05
34 *187:8 *258:41 3.01743e-06
35 *234:13 *258:5 8.33308e-06
36 *250:9 *258:5 0.000135665
37 *254:11 *258:5 0.000341307
38 *256:19 *295:A1 2.60713e-06
39 *257:21 *394:A 0.000145183
40 *257:21 *258:30 2.51997e-05
41 *257:21 *258:41 5.48953e-05
42 *257:23 *258:30 2.51997e-05
43 *257:25 *376:A1 1.17438e-05
44 *257:25 *258:30 0.000124764
*RES
1 req[43] *258:5 66.0357 
2 *258:5 *258:11 10.6786 
3 *258:11 *258:13 40.74 
4 *258:13 *258:17 6.68 
5 *258:17 *376:A1 11.4286 
6 *258:17 *258:30 9.32143 
7 *258:30 *389:A1 10.75 
8 *258:30 *258:41 2.96429 
9 *258:41 *393:A1 10.75 
10 *258:41 *394:A 18.4643 
11 *258:13 *295:A1 25.25 
*END

*D_NET *259 0.00472929
*CONN
*P req[44] I
*I *387:A2 I *D AND4_X1
*I *494:A I *D INV_X1
*I *294:A4 I *D NOR4_X4
*CAP
1 req[44] 0.000882821
2 *387:A2 0
3 *494:A 0
4 *294:A4 5.90092e-05
5 *259:19 7.28985e-05
6 *259:17 0.000214091
7 *259:15 0.000420577
8 *259:11 0.000367129
9 *259:5 0.00102957
10 *259:5 *285:12 0
11 *259:15 *265:17 0.000346527
12 grant[50] *259:5 0.000302036
13 grant[53] *259:5 7.06365e-05
14 grant[54] *259:5 1.78823e-05
15 *306:A3 *259:15 0
16 *318:A4 *259:15 3.69646e-06
17 *387:A4 *259:17 1.045e-05
18 *387:A4 *259:19 1.88334e-06
19 *450:A1 *259:11 9.83877e-06
20 *450:A1 *259:15 4.45767e-06
21 *450:A2 *259:11 4.55656e-05
22 *506:A3 *259:15 9.25875e-05
23 *20:8 *259:15 0
24 *30:47 *259:11 3.8632e-05
25 *189:8 *294:A4 0.000171347
26 *189:8 *259:17 5.19786e-05
27 *189:8 *259:19 3.8984e-05
28 *191:10 *294:A4 0
29 *191:10 *259:15 1.13153e-06
30 *191:10 *259:17 0
31 *191:10 *259:19 0
32 *206:19 *259:17 0
33 *214:16 *259:5 0.000187792
34 *214:16 *259:11 0
35 *226:39 *259:15 9.45383e-05
36 *227:13 *259:5 0.000145205
37 *227:13 *259:11 4.80256e-05
38 *254:33 *259:15 0
*RES
1 req[44] *259:5 122.679 
2 *259:5 *259:11 24.0357 
3 *259:11 *259:15 32.875 
4 *259:15 *259:17 22.3036 
5 *259:17 *259:19 2.28572 
6 *259:19 *294:A4 19.0714 
7 *259:19 *494:A 10 
8 *259:17 *387:A2 10 
*END

*D_NET *260 0.0051756
*CONN
*P req[45] I
*I *400:A1 I *D AND3_X1
*I *385:A I *D INV_X1
*I *294:A3 I *D NOR4_X4
*I *458:A1 I *D NAND4_X1
*CAP
1 req[45] 0.000566485
2 *400:A1 1.084e-05
3 *385:A 5.4491e-05
4 *294:A3 8.00614e-05
5 *458:A1 1.45174e-05
6 *260:45 0.00011188
7 *260:28 0.000166981
8 *260:17 0.000227681
9 *260:9 0.0007776
10 *260:7 0.000604807
11 *260:5 0.000566485
12 *294:A3 *294:A2 0
13 grant[38] *260:5 9.09708e-05
14 grant[42] *260:5 0.000476782
15 grant[60] *260:5 0.000299738
16 *353:A3 *260:9 1.21072e-05
17 *371:A *260:9 1.05991e-05
18 *387:A1 *385:A 1.40196e-06
19 *387:A4 *385:A 3.19164e-07
20 *400:A2 *400:A1 2.39679e-06
21 *479:A *294:A3 9.99214e-05
22 *479:A *458:A1 1.76665e-06
23 *479:A *260:17 9.01846e-07
24 *479:A *260:28 2.73217e-05
25 *486:A2 *260:17 0.000194954
26 *486:A3 *260:17 3.09411e-06
27 *42:6 *260:17 0
28 *61:17 *294:A3 0
29 *61:17 *385:A 2.06738e-05
30 *61:17 *260:45 0
31 *67:16 *294:A3 1.48912e-05
32 *67:16 *260:45 3.69408e-05
33 *71:8 *294:A3 5.65794e-05
34 *112:12 *260:17 2.85072e-05
35 *112:22 *260:17 0.000112233
36 *112:22 *260:28 7.1141e-05
37 *138:8 *260:17 8.26924e-05
38 *166:10 *260:9 9.38013e-06
39 *186:10 *385:A 1.80809e-05
40 *186:10 *400:A1 1.40196e-06
41 *186:12 *400:A1 3.19164e-07
42 *190:10 *385:A 1.09659e-05
43 *190:10 *260:45 9.52997e-06
44 *206:23 *260:17 3.94168e-05
45 *226:23 *260:9 5.3433e-05
46 *226:27 *385:A 0
47 *226:27 *400:A1 0
48 *237:9 *260:9 0
49 *241:9 *260:9 0.000119608
50 *248:13 *260:9 7.36006e-05
51 *248:15 *260:9 1.21075e-05
*RES
1 req[45] *260:5 98.0358 
2 *260:5 *260:7 5 
3 *260:7 *260:9 68.1072 
4 *260:9 *260:17 34.9286 
5 *260:17 *458:A1 6.60714 
6 *260:17 *260:28 11.75 
7 *260:28 *294:A3 22.4643 
8 *260:28 *260:45 10.6786 
9 *260:45 *385:A 21.9643 
10 *260:45 *400:A1 6.25 
*END

*D_NET *261 0.00465471
*CONN
*P req[46] I
*I *484:B1 I *D OAI21_X1
*I *386:A2 I *D NOR2_X1
*I *294:A2 I *D NOR4_X4
*I *401:A1 I *D NAND2_X1
*CAP
1 req[46] 0.000825344
2 *484:B1 3.14629e-05
3 *386:A2 0
4 *294:A2 5.48111e-05
5 *401:A1 1.55846e-05
6 *261:26 6.08849e-05
7 *261:24 7.24215e-05
8 *261:9 0.000297285
9 *261:5 0.00107216
10 *294:A2 *262:32 4.32144e-07
11 *484:B1 *262:21 0
12 *261:5 *271:5 0.00022855
13 *261:5 *281:5 0.000171437
14 *261:9 *262:17 0
15 *261:24 *386:A1 6.72845e-05
16 *261:24 *262:17 0
17 grant[15] *261:5 0
18 *294:A3 *294:A2 0
19 *296:A1 *261:5 0.000145398
20 *296:A2 *261:5 2.64685e-05
21 *296:A3 *261:9 0
22 *369:A2 *261:9 9.24246e-06
23 *369:A3 *261:9 0.000129284
24 *401:A2 *401:A1 2.39679e-06
25 *402:A2 *401:A1 4.2963e-06
26 *11:8 *261:9 0.000131821
27 *11:23 *261:9 0.000123759
28 *60:8 *261:9 1.50276e-05
29 *61:17 *261:9 0.000371622
30 *61:17 *261:24 0.000111637
31 *67:22 *294:A2 1.68643e-06
32 *67:22 *484:B1 4.5563e-05
33 *67:22 *261:26 7.19036e-06
34 *67:37 *294:A2 2.42644e-05
35 *71:8 *294:A2 0
36 *251:5 *261:5 0.000607394
*RES
1 req[46] *261:5 136.036 
2 *261:5 *261:9 43.25 
3 *261:9 *401:A1 11.6786 
4 *261:9 *261:24 11.3571 
5 *261:24 *261:26 0.75 
6 *261:26 *294:A2 11.6786 
7 *261:26 *386:A2 5 
8 *261:24 *484:B1 9.25 
*END

*D_NET *262 0.00462516
*CONN
*P req[47] I
*I *484:B2 I *D OAI21_X1
*I *386:A1 I *D NOR2_X1
*I *403:A1 I *D NAND2_X1
*I *294:A1 I *D NOR4_X4
*I *402:A1 I *D NOR2_X1
*CAP
1 req[47] 0.000386313
2 *484:B2 1.18476e-05
3 *386:A1 5.17398e-05
4 *403:A1 0.000121074
5 *294:A1 8.71307e-06
6 *402:A1 0
7 *262:32 0.000174516
8 *262:23 5.64035e-05
9 *262:21 9.80859e-05
10 *262:17 9.18939e-05
11 *262:13 0.000566282
12 *262:11 0.000558424
13 *262:5 0.000423829
14 *262:5 *266:5 1.18864e-05
15 *262:5 *282:13 0.000635858
16 *262:5 *282:27 2.71958e-06
17 *262:11 *432:A1 3.30816e-05
18 *262:13 *407:A1 6.6164e-05
19 *262:13 *417:A 5.52692e-06
20 *262:13 *418:A1 2.52965e-06
21 *262:13 *275:25 4.9678e-06
22 *262:13 *275:27 1.65872e-05
23 *294:A2 *262:32 4.32144e-07
24 *384:A2 *262:13 1.28122e-06
25 *384:A3 *262:13 6.48216e-07
26 *402:A2 *262:23 4.78054e-06
27 *403:A2 *403:A1 1.21774e-06
28 *432:A3 *262:5 9.15688e-05
29 *456:C1 *262:13 0
30 *479:A *403:A1 3.19164e-07
31 *484:B1 *262:21 0
32 *61:17 *386:A1 5.60956e-06
33 *67:22 *386:A1 1.26998e-05
34 *67:37 *403:A1 9.44145e-05
35 *67:37 *262:32 5.65769e-05
36 *71:8 *386:A1 4.9678e-06
37 *172:8 *403:A1 0.000178832
38 *180:12 *262:11 0.000128998
39 *183:10 *262:13 0
40 *202:12 *262:11 7.48003e-06
41 *204:8 *262:5 1.62116e-05
42 *216:8 *403:A1 0.000179374
43 *218:8 *484:B2 0
44 *218:8 *262:17 0
45 *223:21 *403:A1 0
46 *223:21 *262:13 0.000138796
47 *223:21 *262:21 0
48 *223:21 *262:32 0
49 *230:19 *262:13 0
50 *234:13 *262:5 0
51 *236:21 *262:13 0
52 *236:30 *262:13 0
53 *236:43 *262:13 0
54 *258:5 *262:5 0.000305224
55 *261:9 *262:17 0
56 *261:24 *386:A1 6.72845e-05
57 *261:24 *262:17 0
*RES
1 req[47] *262:5 71.0357 
2 *262:5 *262:11 17.0357 
3 *262:11 *262:13 61.25 
4 *262:13 *262:17 9.32143 
5 *262:17 *262:21 8.75 
6 *262:21 *262:23 1.25 
7 *262:23 *402:A1 5 
8 *262:23 *262:32 6.67857 
9 *262:32 *294:A1 5.92857 
10 *262:32 *403:A1 35.25 
11 *262:21 *386:A1 21.25 
12 *262:17 *484:B2 12.2857 
*END

*D_NET *263 0.0023124
*CONN
*P req[48] I
*I *396:A I *D INV_X1
*I *287:A4 I *D NOR4_X1
*CAP
1 req[48] 0.000245427
2 *396:A 0
3 *287:A4 5.75155e-05
4 *263:17 0.000309719
5 *263:7 0.000497631
6 *287:A4 *287:A3 9.91141e-05
7 *287:A4 *264:30 2.39679e-06
8 *287:A4 *277:9 7.80666e-06
9 *263:17 *264:30 1.19551e-05
10 grant[25] *287:A4 4.32144e-07
11 grant[25] *263:17 0.000218917
12 grant[37] *263:7 1.20712e-06
13 index[2] *263:7 1.19833e-05
14 *465:A4 *287:A4 9.46424e-06
15 *78:12 *287:A4 8.34066e-06
16 *165:32 *287:A4 1.68643e-06
17 *165:34 *263:17 8.72279e-05
18 *174:18 *263:17 6.28554e-05
19 *181:20 *263:7 0.000438493
20 *196:8 *287:A4 8.00618e-05
21 *201:25 *263:17 6.32869e-05
22 *209:10 *263:17 0
23 *255:13 *263:7 9.68828e-05
*RES
1 req[48] *263:7 46.0357 
2 *263:7 *263:17 41.25 
3 *263:17 *287:A4 24.3214 
4 *263:17 *396:A 5 
*END

*D_NET *264 0.00372686
*CONN
*P req[49] I
*I *399:A1 I *D NOR4_X1
*I *287:A3 I *D NOR4_X1
*I *411:A I *D INV_X1
*CAP
1 req[49] 3.03969e-05
2 *399:A1 0
3 *287:A3 4.87384e-05
4 *411:A 7.17099e-06
5 *264:30 9.2186e-05
6 *264:15 0.000627171
7 *264:9 0.00103576
8 *264:7 0.000489605
9 *287:A3 *287:A2 7.72537e-06
10 *287:A3 *413:A 8.43215e-07
11 *287:A3 *277:9 5.48932e-05
12 *264:7 *269:7 2.15342e-05
13 *264:9 *273:9 0.000460422
14 *287:A4 *287:A3 9.91141e-05
15 *287:A4 *264:30 2.39679e-06
16 *412:A2 *264:30 1.28914e-05
17 *465:A4 *287:A3 4.6613e-07
18 *165:32 *287:A3 2.4554e-05
19 *165:32 *264:30 1.0303e-05
20 *165:34 *264:30 4.02344e-05
21 *174:14 *264:15 1.01907e-05
22 *176:10 *411:A 5.28272e-06
23 *176:10 *264:30 5.5931e-06
24 *213:12 *264:15 0.000145735
25 *236:9 *264:9 0.000431405
26 *248:5 *264:7 4.15825e-06
27 *252:11 *264:7 9.35678e-06
28 *252:11 *264:9 2.38217e-06
29 *252:13 *264:9 3.43978e-05
30 *263:17 *264:30 1.19551e-05
*RES
1 req[49] *264:7 9.53572 
2 *264:7 *264:9 74.3215 
3 *264:9 *264:15 32.05 
4 *264:15 *411:A 10.8214 
5 *264:15 *264:30 11.7857 
6 *264:30 *287:A3 22.9643 
7 *264:30 *399:A1 5 
*END

*D_NET *265 0.00589262
*CONN
*P req[4] I
*I *471:A I *D INV_X1
*I *504:A2 I *D AND4_X1
*I *305:A2 I *D NOR4_X1
*CAP
1 req[4] 0.000657937
2 *471:A 2.02051e-05
3 *504:A2 8.84793e-06
4 *305:A2 4.01137e-05
5 *265:32 6.63404e-05
6 *265:17 0.000438386
7 *265:15 0.000467004
8 *265:5 0.000763956
9 *305:A2 *305:A3 2.39679e-06
10 *305:A2 *305:A4 3.71705e-05
11 *305:A2 *444:A1 4.44308e-05
12 *305:A2 *281:22 1.32323e-05
13 *471:A *470:A 7.34574e-05
14 *504:A2 *276:33 1.68643e-06
15 *265:32 *470:A 2.96955e-05
16 grant[32] *265:5 3.82719e-06
17 index[2] *265:5 1.3917e-06
18 *447:A2 *504:A2 2.39679e-06
19 *450:A1 *265:17 4.04557e-06
20 *450:A2 *265:17 1.09659e-05
21 *472:A1 *265:32 2.89018e-05
22 *499:B1 *265:5 1.77043e-05
23 *504:A1 *504:A2 7.19036e-06
24 *504:A4 *471:A 7.16188e-07
25 *20:8 *265:17 0
26 *52:8 *265:15 1.40706e-05
27 *104:8 *305:A2 4.30918e-06
28 *104:14 *265:32 8.25592e-06
29 *106:8 *265:17 2.06943e-05
30 *106:19 *265:17 3.83358e-05
31 *106:19 *265:32 3.39527e-06
32 *124:8 *471:A 6.41837e-05
33 *124:8 *265:32 1.66988e-05
34 *127:10 *265:15 2.94435e-05
35 *139:16 *265:17 4.87067e-05
36 *224:13 *265:17 0
37 *226:47 *265:17 1.48912e-05
38 *232:13 *265:5 6.50252e-05
39 *244:13 *265:5 0.00102717
40 *255:13 *265:5 0.00138746
41 *255:13 *265:15 2.2287e-05
42 *255:19 *265:15 3.91678e-05
43 *259:15 *265:17 0.000346527
*RES
1 req[4] *265:5 130.036 
2 *265:5 *265:15 27.8571 
3 *265:15 *265:17 45.7143 
4 *265:17 *305:A2 16.9286 
5 *265:17 *265:32 5 
6 *265:32 *504:A2 11.25 
7 *265:32 *471:A 14.8929 
*END

*D_NET *266 0.00343944
*CONN
*P req[50] I
*I *397:A2 I *D OR2_X1
*I *287:A2 I *D NOR4_X1
*I *415:A2 I *D AND3_X1
*CAP
1 req[50] 0.000284802
2 *397:A2 2.06484e-05
3 *287:A2 4.08115e-06
4 *415:A2 5.55284e-06
5 *266:24 4.66756e-05
6 *266:13 6.62088e-05
7 *266:9 0.000505963
8 *266:7 0.000467253
9 *266:5 0.000284802
10 *397:A2 *267:25 9.78438e-06
11 *266:5 *270:5 9.67602e-05
12 *266:5 *282:13 0.000625736
13 *266:24 *267:25 2.26316e-05
14 grant[25] *397:A2 1.39839e-06
15 *287:A3 *287:A2 7.72537e-06
16 *398:A3 *266:9 0
17 *408:A1 *266:9 1.13438e-05
18 *415:A1 *415:A2 7.72792e-06
19 *415:A1 *266:13 3.0369e-05
20 *415:A3 *266:24 1.72426e-05
21 *416:A1 *266:13 2.85098e-05
22 *420:A2 *266:9 0
23 *424:A3 *266:9 4.40564e-07
24 *465:A4 *415:A2 2.52965e-06
25 *465:A4 *266:13 2.15927e-05
26 *482:C1 *266:9 3.83584e-06
27 *483:A *266:9 1.72405e-05
28 *483:B2 *266:9 6.14467e-05
29 *3:10 *266:9 6.53865e-06
30 *3:34 *266:9 1.36901e-05
31 *3:47 *266:9 1.91688e-05
32 *5:10 *266:9 0
33 *83:29 *266:9 1.17831e-05
34 *165:32 *287:A2 7.72537e-06
35 *165:32 *397:A2 6.82202e-07
36 *170:21 *397:A2 5.48932e-05
37 *170:21 *266:24 7.78057e-05
38 *176:10 *266:9 0
39 *204:10 *397:A2 6.03486e-06
40 *233:31 *266:9 6.62182e-05
41 *246:13 *266:5 0.000430865
42 *250:15 *266:9 7.98429e-05
43 *262:5 *266:5 1.18864e-05
*RES
1 req[50] *266:5 60.5357 
2 *266:5 *266:7 5 
3 *266:7 *266:9 47.0714 
4 *266:9 *266:13 10.75 
5 *266:13 *415:A2 5.75 
6 *266:13 *266:24 9.32143 
7 *266:24 *287:A2 10.75 
8 *266:24 *397:A2 13.7143 
*END

*D_NET *267 0.00465857
*CONN
*P req[51] I
*I *413:A I *D INV_X1
*I *397:A1 I *D OR2_X1
*I *287:A1 I *D NOR4_X1
*CAP
1 req[51] 0.000360104
2 *413:A 4.57656e-05
3 *397:A1 8.15016e-06
4 *287:A1 0
5 *267:25 6.50912e-05
6 *267:13 0.000262837
7 *267:9 0.000677721
8 *267:7 0.00051759
9 *267:5 0.000360104
10 *413:A *277:9 7.8247e-05
11 *267:9 *288:A1 1.64143e-05
12 *267:9 *406:A1 7.99141e-06
13 *267:9 *428:A2 1.03194e-05
14 *267:9 *277:9 1.36137e-05
15 *267:9 *277:13 0.000145147
16 *267:9 *277:15 2.87062e-05
17 *267:13 *277:9 0.000390306
18 grant[16] *267:5 0.00031604
19 grant[25] *267:25 0
20 *287:A3 *413:A 8.43215e-07
21 *397:A2 *267:25 9.78438e-06
22 *399:A4 *413:A 8.43215e-07
23 *415:A3 *267:25 5.54348e-05
24 *465:A4 *413:A 2.2287e-05
25 *483:B1 *267:13 1.39063e-05
26 *165:32 *397:A1 1.76665e-06
27 *165:32 *413:A 0
28 *165:32 *267:25 7.72792e-06
29 *170:21 *413:A 1.29563e-05
30 *170:21 *267:13 3.61066e-05
31 *178:27 *267:9 0.000620902
32 *178:27 *267:13 8.16729e-06
33 *196:8 *413:A 1.53511e-06
34 *204:10 *267:25 0.000143896
35 *207:12 *267:9 0
36 *217:12 *267:25 3.38384e-05
37 *220:8 *267:25 3.33034e-05
38 *229:9 *267:9 1.30094e-05
39 *237:5 *267:5 0.000315481
40 *266:24 *267:25 2.26316e-05
*RES
1 req[51] *267:5 65.0357 
2 *267:5 *267:7 5 
3 *267:7 *267:9 65.7322 
4 *267:9 *267:13 22.875 
5 *267:13 *267:25 26.7143 
6 *267:25 *287:A1 5 
7 *267:25 *397:A1 5.92857 
8 *267:13 *413:A 16.5714 
*END

*D_NET *268 0.0018612
*CONN
*P req[52] I
*I *290:A4 I *D NOR4_X2
*I *410:A2 I *D AND4_X1
*CAP
1 req[52] 0.000420231
2 *290:A4 0
3 *410:A2 7.10259e-05
4 *268:9 0.00026998
5 *268:5 0.000619185
6 *410:A2 *420:A1 1.86809e-06
7 *410:A2 *271:9 9.1143e-05
8 *410:A2 *271:26 2.26257e-05
9 *410:A2 *271:37 5.01473e-05
10 *268:9 *425:A1 6.26542e-05
11 *268:9 *271:37 4.37715e-05
12 grant[18] *268:5 0
13 grant[20] *268:5 6.9213e-06
14 grant[22] *268:5 2.60945e-06
15 *410:A3 *268:9 2.3767e-06
16 *410:A4 *410:A2 3.5628e-06
17 *464:A3 *268:5 0
18 *119:10 *268:9 0
19 *152:45 *410:A2 2.6731e-05
20 *152:45 *268:9 8.41155e-06
21 *160:16 *268:9 6.84524e-07
22 *165:34 *268:5 0.000113928
23 *201:10 *268:9 3.08152e-05
24 *201:21 *268:5 0
25 *205:10 *268:9 1.25282e-05
*RES
1 req[52] *268:5 47.5357 
2 *268:5 *268:9 26.2857 
3 *268:9 *410:A2 20.0714 
4 *268:9 *290:A4 10 
*END

*D_NET *269 0.00501212
*CONN
*P req[53] I
*I *290:A3 I *D NOR4_X2
*I *405:A I *D INV_X1
*I *420:A1 I *D NAND4_X1
*CAP
1 req[53] 0.000317236
2 *290:A3 3.84367e-05
3 *405:A 0
4 *420:A1 3.88326e-05
5 *269:15 0.000105448
6 *269:9 0.000630782
7 *269:7 0.000842966
8 *269:7 *284:5 0.000211502
9 *269:9 *276:13 0.00038291
10 *269:9 *276:23 7.61861e-05
11 *269:9 *280:9 0.00171521
12 *269:15 *280:9 0.000191682
13 grant[34] *290:A3 1.03058e-05
14 grant[52] *269:15 0
15 *410:A2 *420:A1 1.86809e-06
16 *410:A3 *420:A1 6.38328e-07
17 *410:A3 *269:15 1.91954e-06
18 *410:A4 *420:A1 0
19 *424:A3 *290:A3 7.19036e-06
20 *482:C2 *420:A1 5.69552e-06
21 *200:8 *290:A3 1.94465e-06
22 *206:35 *420:A1 6.11946e-05
23 *206:35 *269:15 3.09091e-05
24 *233:15 *269:15 0
25 *248:5 *269:7 0
26 *256:11 *269:9 0.000126048
27 *256:11 *269:15 0.000191682
28 *264:7 *269:7 2.15342e-05
*RES
1 req[53] *269:7 48.5357 
2 *269:7 *269:9 97.9643 
3 *269:9 *269:15 18.6786 
4 *269:15 *420:A1 10.75 
5 *269:15 *405:A 5 
6 *269:9 *290:A3 13.75 
*END

*D_NET *270 0.00237803
*CONN
*P req[54] I
*I *422:A I *D INV_X1
*I *290:A2 I *D NOR4_X2
*I *409:A2 I *D NOR2_X1
*CAP
1 req[54] 0.000249529
2 *422:A 4.07442e-05
3 *290:A2 0
4 *409:A2 3.55162e-05
5 *270:11 3.55162e-05
6 *270:9 0.000246787
7 *270:5 0.000455572
8 *409:A2 *409:A1 5.46177e-05
9 *422:A *425:A1 2.16072e-07
10 *422:A *271:26 3.75264e-06
11 *422:A *271:37 1.70642e-05
12 *270:5 *274:5 0.000218259
13 *270:9 *271:9 0.000179813
14 *270:9 *271:26 3.83812e-06
15 *270:9 *280:9 6.94703e-06
16 grant[34] *409:A2 5.81102e-06
17 *410:A3 *422:A 0.000128603
18 *410:A3 *270:9 9.08762e-05
19 *424:A2 *422:A 4.01832e-05
20 *424:A3 *422:A 2.94455e-05
21 *163:20 *409:A2 4.12459e-06
22 *170:25 *422:A 7.19036e-06
23 *178:31 *409:A2 4.98241e-05
24 *205:10 *270:9 0.000100897
25 *246:13 *270:5 0.000276145
26 *266:5 *270:5 9.67602e-05
*RES
1 req[54] *270:5 46.0357 
2 *270:5 *270:9 33.75 
3 *270:9 *270:11 5 
4 *270:11 *409:A2 11.25 
5 *270:11 *290:A2 5 
6 *270:9 *422:A 17.7857 
*END

*D_NET *271 0.00333864
*CONN
*P req[55] I
*I *425:A1 I *D AND2_X2
*I *424:A1 I *D NOR3_X1
*I *290:A1 I *D NOR4_X2
*I *409:A1 I *D NOR2_X1
*CAP
1 req[55] 0.000259241
2 *425:A1 2.29641e-05
3 *424:A1 7.17197e-06
4 *290:A1 6.54501e-06
5 *409:A1 4.69723e-05
6 *271:37 5.04016e-05
7 *271:26 3.96369e-05
8 *271:9 0.00050091
9 *271:7 0.000441112
10 *271:5 0.000259241
11 *271:5 *281:5 0.000229109
12 *271:9 *438:A 2.28505e-05
13 *271:9 *278:11 9.32904e-05
14 *271:9 *279:23 0
15 *271:9 *280:9 0
16 *271:9 *280:24 2.12223e-06
17 *409:A2 *409:A1 5.46177e-05
18 *410:A2 *271:9 9.1143e-05
19 *410:A2 *271:26 2.26257e-05
20 *410:A2 *271:37 5.01473e-05
21 *410:A3 *425:A1 5.39412e-06
22 *422:A *425:A1 2.16072e-07
23 *422:A *271:26 3.75264e-06
24 *422:A *271:37 1.70642e-05
25 *424:A2 *425:A1 4.0944e-05
26 *424:A2 *271:37 1.72405e-05
27 *424:A3 *271:37 2.94455e-05
28 *463:A4 *271:9 0.000294323
29 *85:27 *425:A1 7.72792e-06
30 *86:8 *409:A1 3.17021e-06
31 *100:14 *271:9 4.17577e-05
32 *119:10 *409:A1 4.08063e-05
33 *152:45 *271:9 9.07872e-06
34 *163:20 *409:A1 5.51502e-05
35 *170:25 *424:A1 7.19036e-06
36 *177:18 *271:9 7.0096e-06
37 *208:10 *271:9 0
38 *210:12 *271:9 3.96444e-05
39 *261:5 *271:5 0.00022855
40 *268:9 *425:A1 6.26542e-05
41 *268:9 *271:37 4.37715e-05
42 *270:9 *271:9 0.000179813
43 *270:9 *271:26 3.83812e-06
*RES
1 req[55] *271:5 47.0357 
2 *271:5 *271:7 5 
3 *271:7 *271:9 56.5715 
4 *271:9 *409:A1 27.5357 
5 *271:9 *271:26 1.60714 
6 *271:26 *290:A1 10.75 
7 *271:26 *271:37 5 
8 *271:37 *424:A1 10.75 
9 *271:37 *425:A1 14.3929 
*END

*D_NET *272 0.00339824
*CONN
*P req[56] I
*I *419:A2 I *D AND4_X1
*I *289:A4 I *D NOR4_X2
*I *407:A4 I *D OR4_X1
*CAP
1 req[56] 0.000426875
2 *419:A2 4.22061e-06
3 *289:A4 0
4 *407:A4 6.16552e-05
5 *272:19 8.15195e-05
6 *272:15 2.4085e-05
7 *272:13 0.000551601
8 *272:11 0.000586241
9 *272:5 0.000461515
10 *407:A4 *407:A3 3.50487e-05
11 *419:A2 *407:A3 4.69702e-07
12 *272:13 *289:A1 4.80378e-06
13 *272:13 *274:13 0.000170297
14 *272:13 *274:22 3.77779e-05
15 *272:13 *274:33 7.50533e-05
16 *272:19 *407:A3 6.82202e-07
17 *272:19 *273:45 1.76665e-06
18 grant[42] *272:5 0.000377115
19 index[1] *272:5 0.000377674
20 *419:A1 *419:A2 2.75346e-06
21 *3:47 *419:A2 2.75346e-06
22 *4:8 *272:13 8.88497e-06
23 *84:12 *407:A4 3.48838e-06
24 *91:12 *407:A4 3.23723e-07
25 *91:12 *419:A2 1.87637e-06
26 *91:12 *272:13 1.83151e-05
27 *91:12 *272:19 3.09143e-06
28 *158:10 *272:13 2.79274e-05
29 *159:23 *272:13 3.07297e-05
30 *230:21 *272:13 1.96924e-05
31 *235:17 *407:A4 0
*RES
1 req[56] *272:5 77.5357 
2 *272:5 *272:11 8.375 
3 *272:11 *272:13 62.3393 
4 *272:13 *272:15 5 
5 *272:15 *272:19 2.35714 
6 *272:19 *407:A4 22.2857 
7 *272:19 *289:A4 5 
8 *272:15 *419:A2 5.75 
*END

*D_NET *273 0.0061028
*CONN
*P req[57] I
*I *289:A3 I *D NOR4_X2
*I *407:A3 I *D OR4_X1
*I *429:A1 I *D NAND3_X1
*I *417:A I *D INV_X1
*CAP
1 req[57] 3.57351e-05
2 *289:A3 0
3 *407:A3 4.94968e-05
4 *429:A1 1.52323e-05
5 *417:A 8.53584e-05
6 *273:45 0.000149147
7 *273:25 0.000117312
8 *273:17 0.000213642
9 *273:15 0.000290462
10 *273:9 0.000805832
11 *273:7 0.000648377
12 *407:A3 *407:A2 3.64379e-05
13 *417:A *275:25 9.91688e-06
14 *429:A1 *275:25 0
15 *273:9 *275:9 0.00120541
16 *273:25 *277:13 4.29819e-05
17 grant[14] *273:9 7.83188e-05
18 *407:A4 *407:A3 3.50487e-05
19 *419:A1 *273:45 5.37286e-05
20 *419:A2 *407:A3 4.69702e-07
21 *421:A *273:17 4.13905e-05
22 *429:A3 *429:A1 4.21607e-06
23 *429:A3 *273:25 4.24423e-05
24 *84:12 *407:A3 1.88334e-06
25 *91:12 *407:A3 4.26902e-05
26 *164:22 *273:45 3.23354e-05
27 *199:8 *273:15 0.000324286
28 *226:5 *273:15 4.91874e-05
29 *226:5 *273:17 0.000187137
30 *226:5 *273:45 2.75346e-06
31 *230:9 *273:15 0.000442595
32 *230:9 *273:17 4.63318e-06
33 *230:19 *407:A3 1.8031e-05
34 *230:19 *417:A 1.73666e-05
35 *230:19 *429:A1 5.90251e-06
36 *230:19 *273:15 0
37 *230:19 *273:17 7.11429e-05
38 *230:19 *273:45 5.37908e-05
39 *233:9 *273:9 0.000248863
40 *235:13 *273:9 3.28571e-07
41 *236:9 *273:9 3.04869e-05
42 *238:9 *273:9 9.02094e-05
43 *240:5 *273:7 2.49124e-05
44 *249:5 *273:7 2.49124e-05
45 *262:13 *417:A 5.52692e-06
46 *264:9 *273:9 0.000460422
47 *272:19 *407:A3 6.82202e-07
48 *272:19 *273:45 1.76665e-06
*RES
1 req[57] *273:7 10.5357 
2 *273:7 *273:9 107.464 
3 *273:9 *273:15 46.6786 
4 *273:15 *273:17 17.75 
5 *273:17 *273:25 13.2143 
6 *273:25 *417:A 14.6786 
7 *273:25 *429:A1 6.75 
8 *273:17 *273:45 14.1786 
9 *273:45 *407:A3 23.2857 
10 *273:45 *289:A3 5 
*END

*D_NET *274 0.00243627
*CONN
*P req[58] I
*I *289:A2 I *D NOR4_X2
*I *407:A2 I *D OR4_X1
*I *418:A2 I *D NOR2_X1
*I *431:A I *D INV_X1
*CAP
1 req[58] 0.000392333
2 *289:A2 0
3 *407:A2 3.11965e-05
4 *418:A2 0
5 *431:A 0
6 *274:33 5.07965e-05
7 *274:22 3.21427e-05
8 *274:13 0.000239792
9 *274:5 0.000619582
10 *407:A2 *289:A1 2.39679e-06
11 *407:A2 *407:A1 6.13704e-05
12 *274:5 *435:A1 0
13 *274:5 *278:5 0.000220136
14 *274:5 *278:15 0
15 *274:13 *406:A1 1.67775e-05
16 *274:33 *289:A1 1.2203e-05
17 *274:33 *275:38 4.18985e-05
18 *407:A3 *407:A2 3.64379e-05
19 *432:A2 *274:13 1.17933e-05
20 *432:A2 *274:22 3.0915e-06
21 *435:A2 *274:5 0
22 *96:12 *274:5 0
23 *96:12 *274:13 2.73238e-06
24 *152:49 *274:5 2.56243e-06
25 *159:23 *274:13 2.37117e-05
26 *159:23 *274:22 5.10087e-06
27 *159:23 *274:33 4.80268e-06
28 *176:8 *274:5 6.27971e-05
29 *176:8 *274:13 0
30 *178:23 *274:13 0
31 *207:8 *274:13 3.66677e-05
32 *230:19 *407:A2 3.04684e-06
33 *246:13 *274:5 2.15121e-05
34 *270:5 *274:5 0.000218259
35 *272:13 *274:13 0.000170297
36 *272:13 *274:22 3.77779e-05
37 *272:13 *274:33 7.50533e-05
*RES
1 req[58] *274:5 61.0357 
2 *274:5 *274:13 32.7857 
3 *274:13 *431:A 10 
4 *274:13 *274:22 2.28572 
5 *274:22 *418:A2 10 
6 *274:22 *274:33 9.32143 
7 *274:33 *407:A2 10.75 
8 *274:33 *289:A2 5 
*END

*D_NET *275 0.0051339
*CONN
*P req[59] I
*I *433:A1 I *D NAND2_X1
*I *432:A1 I *D NOR3_X1
*I *289:A1 I *D NOR4_X2
*I *407:A1 I *D OR4_X1
*I *418:A1 I *D NOR2_X1
*CAP
1 req[59] 5.18304e-05
2 *433:A1 0
3 *432:A1 2.5299e-05
4 *289:A1 1.43094e-05
5 *407:A1 2.98226e-05
6 *418:A1 5.55284e-06
7 *275:38 5.80435e-05
8 *275:27 5.16833e-05
9 *275:25 0.000187674
10 *275:21 0.000143621
11 *275:13 0.000414592
12 *275:11 0.000401127
13 *275:9 0.000289328
14 *275:7 0.000341159
15 grant[43] *275:7 2.05033e-06
16 grant[46] *275:7 2.4357e-05
17 *407:A2 *289:A1 2.39679e-06
18 *407:A2 *407:A1 6.13704e-05
19 *417:A *275:25 9.91688e-06
20 *420:A2 *275:21 4.32319e-05
21 *429:A1 *275:25 0
22 *429:A3 *275:25 1.83053e-06
23 *463:A1 *275:13 1.0303e-05
24 *463:A2 *275:13 7.72537e-06
25 *463:A4 *275:13 9.18521e-06
26 *3:14 *275:25 6.15513e-05
27 *97:6 *275:13 1.55529e-05
28 *97:6 *275:25 0
29 *99:8 *275:13 0
30 *99:8 *275:25 3.88456e-06
31 *119:10 *275:13 7.72792e-06
32 *159:23 *289:A1 5.86754e-06
33 *159:23 *275:38 7.94852e-06
34 *176:10 *275:21 4.26902e-05
35 *202:12 *432:A1 9.21631e-05
36 *205:8 *275:13 2.56243e-06
37 *223:17 *275:13 0
38 *223:17 *275:21 1.43238e-06
39 *223:17 *275:25 4.0392e-05
40 *223:17 *275:27 1.34931e-05
41 *223:21 *418:A1 7.72792e-06
42 *223:21 *275:27 5.50692e-06
43 *225:5 *275:7 6.72524e-06
44 *230:9 *275:13 0.0001172
45 *230:19 *289:A1 3.09143e-06
46 *230:19 *275:25 0
47 *233:9 *275:9 0.000968334
48 *238:9 *275:9 7.64942e-06
49 *242:13 *275:9 0.000102866
50 *242:13 *275:13 1.32348e-05
51 *246:11 *275:13 3.22492e-05
52 *262:11 *432:A1 3.30816e-05
53 *262:13 *407:A1 6.6164e-05
54 *262:13 *418:A1 2.52965e-06
55 *262:13 *275:25 4.9678e-06
56 *262:13 *275:27 1.65872e-05
57 *272:13 *289:A1 4.80378e-06
58 *273:9 *275:9 0.00120541
59 *274:33 *289:A1 1.2203e-05
60 *274:33 *275:38 4.18985e-05
*RES
1 req[59] *275:7 11.0357 
2 *275:7 *275:9 68.1072 
3 *275:9 *275:11 5 
4 *275:11 *275:13 50.25 
5 *275:13 *275:21 13.0357 
6 *275:21 *275:25 16.6786 
7 *275:25 *275:27 4.25 
8 *275:27 *418:A1 5.75 
9 *275:27 *275:38 7.28572 
10 *275:38 *407:A1 16.25 
11 *275:38 *289:A1 12.3571 
12 *275:25 *432:A1 20 
13 *275:21 *433:A1 5 
*END

*D_NET *276 0.00631606
*CONN
*P req[5] I
*I *470:A I *D INV_X1
*I *447:A1 I *D AND3_X2
*I *305:A1 I *D NOR4_X1
*CAP
1 req[5] 0.000283413
2 *470:A 5.90973e-05
3 *447:A1 0
4 *305:A1 8.71307e-06
5 *276:33 5.93647e-05
6 *276:27 0.000114105
7 *276:25 0.000799479
8 *276:23 0.00103105
9 *276:13 0.000568147
10 *276:11 0.000332222
11 *276:9 0.000283413
12 *276:25 *281:13 0
13 *276:25 *281:22 0
14 *276:33 *444:A1 1.74689e-05
15 grant[34] *276:9 0.000474214
16 grant[41] *276:9 4.14516e-06
17 grant[49] *276:9 0
18 *447:A2 *276:33 3.045e-06
19 *447:A3 *276:33 1.78556e-05
20 *471:A *470:A 7.34574e-05
21 *472:A1 *276:33 7.19036e-06
22 *472:A2 *276:33 1.68643e-06
23 *473:A2 *276:25 8.96184e-05
24 *504:A1 *276:33 7.19036e-06
25 *504:A2 *276:33 1.68643e-06
26 *104:8 *276:33 1.1519e-06
27 *124:8 *470:A 9.24246e-06
28 *163:20 *276:9 0.000105168
29 *195:8 *276:25 0
30 *205:10 *276:13 0.00121774
31 *224:5 *276:25 0
32 *228:5 *276:25 0
33 *231:5 *276:23 2.93598e-05
34 *231:5 *276:25 5.97201e-05
35 *240:5 *276:23 0
36 *240:5 *276:25 0
37 *256:11 *276:13 0.000168336
38 *265:32 *470:A 2.96955e-05
39 *269:9 *276:13 0.00038291
40 *269:9 *276:23 7.61861e-05
*RES
1 req[5] *276:9 45.7143 
2 *276:9 *276:11 5 
3 *276:11 *276:13 67.0893 
4 *276:13 *276:23 32.9107 
5 *276:23 *276:25 89.3572 
6 *276:25 *276:27 0.928572 
7 *276:27 *276:33 7.42857 
8 *276:33 *305:A1 5.92857 
9 *276:33 *447:A1 5 
10 *276:27 *470:A 23.1071 
*END

*D_NET *277 0.00525428
*CONN
*P req[60] I
*I *406:A4 I *D OR4_X2
*I *288:A4 I *D NOR4_X4
*I *428:A2 I *D AND3_X1
*CAP
1 req[60] 0.000368041
2 *406:A4 1.64188e-05
3 *288:A4 1.55104e-05
4 *428:A2 2.36154e-05
5 *277:15 6.08847e-05
6 *277:13 0.000189763
7 *277:9 0.000771363
8 *277:7 0.000619777
9 *277:5 0.000368041
10 *406:A4 *406:A1 4.32144e-07
11 *406:A4 *406:A2 1.68643e-06
12 *406:A4 *406:A3 7.19036e-06
13 *428:A2 *406:A1 2.88015e-05
14 *277:13 *282:27 2.94455e-05
15 *277:15 *406:A1 4.16485e-05
16 *277:15 *406:A2 5.11191e-06
17 *277:15 *406:A3 3.01743e-06
18 *287:A3 *277:9 5.48932e-05
19 *287:A4 *277:9 7.80666e-06
20 *408:A1 *277:9 1.0024e-05
21 *413:A *277:9 7.8247e-05
22 *424:A3 *277:9 4.80378e-06
23 *428:A1 *428:A2 2.88639e-05
24 *429:A3 *277:13 1.66016e-05
25 *482:B2 *277:9 4.7875e-06
26 *482:B2 *277:13 7.0484e-06
27 *482:C1 *277:9 5.11191e-06
28 *483:A *277:9 8.75251e-05
29 *483:B2 *277:9 5.79944e-05
30 *3:10 *277:13 4.16195e-06
31 *3:10 *277:15 2.3767e-06
32 *83:8 *277:13 2.3767e-06
33 *83:29 *277:9 5.11191e-06
34 *83:29 *277:13 3.01293e-05
35 *88:10 *277:9 6.55603e-05
36 *96:12 *288:A4 2.15711e-05
37 *96:12 *428:A2 2.83289e-05
38 *170:21 *277:9 6.52372e-05
39 *176:8 *406:A4 2.37137e-05
40 *193:10 *277:9 0.000570806
41 *196:8 *277:9 9.73153e-05
42 *207:8 *288:A4 2.15711e-05
43 *224:5 *277:5 0.000302201
44 *225:15 *277:9 7.93012e-05
45 *226:15 *277:13 8.6788e-05
46 *228:5 *277:5 0.000302201
47 *267:9 *428:A2 1.03194e-05
48 *267:9 *277:9 1.36137e-05
49 *267:9 *277:13 0.000145147
50 *267:9 *277:15 2.87062e-05
51 *267:13 *277:9 0.000390306
52 *273:25 *277:13 4.29819e-05
*RES
1 req[60] *277:5 63.5357 
2 *277:5 *277:7 5 
3 *277:7 *277:9 90.5 
4 *277:9 *277:13 23.3929 
5 *277:13 *277:15 4.32143 
6 *277:15 *428:A2 14.3571 
7 *277:15 *288:A4 12.25 
8 *277:13 *406:A4 12.25 
*END

*D_NET *278 0.00199125
*CONN
*P req[61] I
*I *462:B2 I *D AOI21_X1
*I *435:A1 I *D AND2_X1
*I *426:A I *D INV_X1
*I *288:A3 I *D NOR4_X4
*I *406:A3 I *D OR4_X2
*CAP
1 req[61] 0.000273323
2 *462:B2 0
3 *435:A1 1.59388e-05
4 *426:A 0
5 *288:A3 0
6 *406:A3 4.31987e-05
7 *278:21 7.10537e-05
8 *278:19 7.64692e-05
9 *278:15 0.000101723
10 *278:11 6.67401e-05
11 *278:5 0.000302893
12 *406:A3 *406:A2 0.000108355
13 *406:A3 *279:27 8.26038e-06
14 *278:5 *282:11 1.27296e-05
15 *278:11 *280:9 0
16 *278:11 *280:24 4.0768e-05
17 *278:15 *280:39 2.75346e-06
18 *278:15 *280:45 5.01531e-05
19 *278:19 *279:27 9.49253e-06
20 *278:19 *280:45 1.44526e-05
21 *278:19 *280:57 7.19036e-06
22 *278:21 *279:27 5.9152e-05
23 grant[10] *278:5 6.42887e-07
24 *406:A4 *406:A3 7.19036e-06
25 *428:A1 *406:A3 7.72792e-06
26 *428:A1 *278:21 3.98778e-05
27 *435:A2 *435:A1 3.03512e-06
28 *435:A2 *278:19 9.61947e-06
29 *462:B1 *278:15 8.43215e-07
30 *3:10 *406:A3 8.98164e-05
31 *96:12 *278:19 3.526e-05
32 *96:12 *278:21 5.01331e-06
33 *152:49 *278:5 0.000204689
34 *152:49 *278:15 0
35 *207:12 *406:A3 6.44784e-06
36 *271:9 *278:11 9.32904e-05
37 *274:5 *435:A1 0
38 *274:5 *278:5 0.000220136
39 *274:5 *278:15 0
40 *277:15 *406:A3 3.01743e-06
*RES
1 req[61] *278:5 46.5357 
2 *278:5 *278:11 15 
3 *278:11 *278:15 5.17857 
4 *278:15 *278:19 7.85715 
5 *278:19 *278:21 5.75 
6 *278:21 *406:A3 22.8571 
7 *278:21 *288:A3 5 
8 *278:19 *426:A 5 
9 *278:15 *435:A1 7.67857 
10 *278:11 *462:B2 5 
*END

*D_NET *279 0.00551746
*CONN
*P req[62] I
*I *436:A I *D INV_X1
*I *427:A2 I *D NOR2_X1
*I *406:A2 I *D OR4_X2
*I *288:A2 I *D NOR4_X4
*CAP
1 req[62] 0.000103109
2 *436:A 0
3 *427:A2 0
4 *406:A2 3.99828e-05
5 *288:A2 2.75718e-05
6 *279:27 0.0001375
7 *279:23 0.000137639
8 *279:13 0.000231221
9 *279:9 0.00107559
10 *279:7 0.00101517
11 *288:A2 *288:A1 2.94435e-05
12 *288:A2 *406:A1 2.87732e-05
13 *406:A2 *406:A1 0.000109914
14 *279:13 *438:A 3.65322e-06
15 *279:23 *438:A 1.21774e-06
16 *279:23 *280:45 1.68643e-06
17 *279:23 *280:57 8.43215e-07
18 *279:27 *280:57 5.15271e-05
19 grant[17] *279:13 0.000335922
20 grant[17] *279:23 5.64011e-05
21 grant[29] *288:A2 1.32348e-05
22 grant[29] *279:13 8.51924e-05
23 grant[29] *279:23 4.20231e-06
24 grant[29] *279:27 6.82202e-07
25 grant[49] *279:9 0
26 grant[62] *279:7 7.2323e-05
27 *406:A3 *406:A2 0.000108355
28 *406:A3 *279:27 8.26038e-06
29 *406:A4 *406:A2 1.68643e-06
30 *428:A1 *279:27 1.87637e-06
31 *100:14 *279:23 0
32 *177:12 *288:A2 1.37673e-05
33 *177:12 *279:23 3.47275e-05
34 *177:18 *279:23 7.11905e-07
35 *197:25 *279:9 0.000182898
36 *199:10 *279:9 0.00136697
37 *207:12 *288:A2 7.72854e-06
38 *207:12 *406:A2 2.05853e-06
39 *208:10 *279:23 7.91399e-05
40 *210:12 *279:23 4.00957e-07
41 *245:5 *279:7 7.2323e-05
42 *246:11 *279:9 0
43 *271:9 *279:23 0
44 *277:15 *406:A2 5.11191e-06
45 *278:19 *279:27 9.49253e-06
46 *278:21 *279:27 5.9152e-05
*RES
1 req[62] *279:7 21.0357 
2 *279:7 *279:9 110.857 
3 *279:9 *279:13 35.75 
4 *279:13 *279:23 20.3214 
5 *279:23 *279:27 16.25 
6 *279:27 *288:A2 14.2143 
7 *279:27 *406:A2 17.6071 
8 *279:23 *427:A2 5 
9 *279:13 *436:A 5 
*END

*D_NET *280 0.00649618
*CONN
*P req[63] I
*I *437:A1 I *D NOR2_X1
*I *427:A1 I *D NOR2_X1
*I *406:A1 I *D OR4_X2
*I *288:A1 I *D NOR4_X4
*I *438:A I *D CLKBUF_X1
*I *462:A I *D AOI21_X1
*CAP
1 req[63] 0.000241842
2 *437:A1 0
3 *427:A1 0
4 *406:A1 5.34427e-05
5 *288:A1 3.72239e-05
6 *438:A 3.46023e-05
7 *462:A 6.09993e-06
8 *280:57 0.000175017
9 *280:45 0.000127315
10 *280:39 4.75645e-05
11 *280:24 5.57146e-05
12 *280:13 4.66223e-05
13 *280:9 0.000928998
14 *280:7 0.00114683
15 grant[17] *288:A1 1.87418e-05
16 grant[19] *288:A1 1.92742e-05
17 grant[29] *438:A 7.72537e-06
18 grant[29] *280:45 8.61743e-06
19 grant[29] *280:57 0.000120525
20 *288:A2 *288:A1 2.94435e-05
21 *288:A2 *406:A1 2.87732e-05
22 *406:A2 *406:A1 0.000109914
23 *406:A4 *406:A1 4.32144e-07
24 *428:A2 *406:A1 2.88015e-05
25 *462:B1 *438:A 2.77515e-05
26 *462:B1 *462:A 7.19036e-06
27 *462:B1 *280:13 4.79358e-06
28 *462:B1 *280:24 4.11965e-05
29 *462:B1 *280:39 6.82202e-07
30 *100:14 *280:45 3.5628e-06
31 *152:49 *462:A 2.52965e-06
32 *152:49 *280:13 1.47097e-05
33 *174:18 *280:9 5.4573e-05
34 *201:25 *280:9 0.000278705
35 *203:8 *280:57 5.3209e-05
36 *205:10 *280:9 3.28136e-05
37 *207:12 *288:A1 9.561e-06
38 *208:10 *280:57 5.26342e-05
39 *209:8 *280:13 0
40 *209:8 *280:39 4.97191e-06
41 *209:8 *280:45 2.75346e-06
42 *248:5 *280:7 0.000207574
43 *249:5 *280:7 0.000207574
44 *256:11 *280:9 1.99907e-05
45 *267:9 *288:A1 1.64143e-05
46 *267:9 *406:A1 7.99141e-06
47 *269:9 *280:9 0.00171521
48 *269:15 *280:9 0.000191682
49 *270:9 *280:9 6.94703e-06
50 *271:9 *438:A 2.28505e-05
51 *271:9 *280:9 0
52 *271:9 *280:24 2.12223e-06
53 *274:13 *406:A1 1.67775e-05
54 *277:15 *406:A1 4.16485e-05
55 *278:11 *280:9 0
56 *278:11 *280:24 4.0768e-05
57 *278:15 *280:39 2.75346e-06
58 *278:15 *280:45 5.01531e-05
59 *278:19 *280:45 1.44526e-05
60 *278:19 *280:57 7.19036e-06
61 *279:13 *438:A 3.65322e-06
62 *279:23 *438:A 1.21774e-06
63 *279:23 *280:45 1.68643e-06
64 *279:23 *280:57 8.43215e-07
65 *279:27 *280:57 5.15271e-05
*RES
1 req[63] *280:7 48.0357 
2 *280:7 *280:9 129.179 
3 *280:9 *280:13 8.25 
4 *280:13 *462:A 5.75 
5 *280:13 *280:24 7.96429 
6 *280:24 *438:A 14.3929 
7 *280:24 *280:39 5.75 
8 *280:39 *280:45 6.92857 
9 *280:45 *280:57 29.9643 
10 *280:57 *288:A1 16.0714 
11 *280:57 *406:A1 18.7857 
12 *280:45 *427:A1 5 
13 *280:39 *437:A1 5 
*END

*D_NET *281 0.00626039
*CONN
*P req[6] I
*I *444:A2 I *D NOR2_X1
*I *305:A4 I *D NOR4_X1
*I *469:A I *D INV_X1
*CAP
1 req[6] 0.000724071
2 *444:A2 0
3 *305:A4 3.73204e-05
4 *469:A 0
5 *281:22 0.000128452
6 *281:13 0.000201192
7 *281:9 0.00120527
8 *281:7 0.00109521
9 *281:5 0.000724071
10 *305:A4 *305:A3 2.39679e-06
11 *281:9 *474:A1 0
12 grant[15] *281:5 0.000573101
13 *296:A1 *281:9 0
14 *305:A2 *305:A4 3.71705e-05
15 *305:A2 *281:22 1.32323e-05
16 *381:A1 *281:9 5.25718e-06
17 *381:A4 *281:9 0
18 *384:A1 *281:9 1.80708e-05
19 *459:A *281:9 0
20 *460:A3 *281:9 4.58343e-06
21 *473:A2 *281:22 1.81969e-05
22 *7:41 *281:9 7.86594e-05
23 *7:43 *281:9 4.4471e-05
24 *7:45 *281:9 3.01743e-06
25 *7:64 *281:9 5.20238e-07
26 *56:8 *281:9 6.44191e-06
27 *57:10 *281:9 1.06702e-05
28 *60:29 *281:9 2.14464e-05
29 *69:8 *281:9 0
30 *104:8 *281:22 1.18589e-06
31 *115:10 *281:9 0
32 *152:16 *281:9 0
33 *177:10 *281:9 8.82319e-05
34 *181:10 *281:9 9.97726e-05
35 *181:14 *281:9 0.000167257
36 *182:10 *281:9 0
37 *219:8 *281:9 0.000506876
38 *221:5 *305:A4 0
39 *221:5 *281:22 0
40 *224:5 *281:13 3.52145e-05
41 *224:5 *281:22 6.71612e-06
42 *243:27 *281:9 1.77976e-06
43 *261:5 *281:5 0.000171437
44 *271:5 *281:5 0.000229109
45 *276:25 *281:13 0
46 *276:25 *281:22 0
*RES
1 req[6] *281:5 119.036 
2 *281:5 *281:7 5 
3 *281:7 *281:9 142.071 
4 *281:9 *281:13 18.25 
5 *281:13 *469:A 5 
6 *281:13 *281:22 11.1786 
7 *281:22 *305:A4 9.75 
8 *281:22 *444:A2 5 
*END

*D_NET *282 0.00867385
*CONN
*P req[7] I
*I *474:A1 I *D NOR3_X4
*I *448:A1 I *D AND2_X1
*I *444:A1 I *D NOR2_X1
*I *305:A3 I *D NOR4_X1
*CAP
1 req[7] 4.52359e-05
2 *474:A1 5.9797e-05
3 *448:A1 0
4 *444:A1 5.09408e-05
5 *305:A3 5.95293e-06
6 *282:63 0.00013159
7 *282:57 0.000234502
8 *282:53 0.000260875
9 *282:49 0.000509893
10 *282:47 0.000634478
11 *282:43 0.000337173
12 *282:27 0.000355484
13 *282:13 0.000441486
14 *282:11 0.000302552
15 grant[10] *282:11 1.32914e-05
16 *305:A2 *305:A3 2.39679e-06
17 *305:A2 *444:A1 4.44308e-05
18 *305:A4 *305:A3 2.39679e-06
19 *336:A4 *282:49 0
20 *349:A1 *282:49 2.72417e-06
21 *350:A3 *282:49 1.55645e-05
22 *355:A1 *282:27 1.13641e-05
23 *355:A1 *282:43 0.000211366
24 *356:A2 *282:49 1.045e-05
25 *360:A1 *282:49 5.37352e-05
26 *360:A2 *282:49 1.74984e-05
27 *375:A1 *282:43 2.35379e-05
28 *432:A3 *282:27 1.26998e-05
29 *447:A2 *444:A1 4.32144e-07
30 *448:A2 *282:57 1.55556e-05
31 *448:A2 *282:63 2.39679e-06
32 *455:A1 *282:53 9.26943e-06
33 *456:A *282:47 4.6516e-05
34 *472:A2 *444:A1 2.43548e-06
35 *474:A3 *474:A1 0
36 *487:A1 *474:A1 1.23214e-06
37 *498:B2 *282:47 4.33419e-06
38 *498:B2 *282:49 0.000146898
39 *498:C1 *282:49 7.58428e-05
40 *7:41 *282:49 1.30415e-05
41 *8:18 *282:43 3.46864e-06
42 *17:23 *282:49 2.41311e-05
43 *40:59 *282:49 0
44 *48:25 *282:43 7.38084e-05
45 *49:14 *282:47 4.18985e-05
46 *54:8 *282:49 1.42838e-05
47 *54:26 *282:49 1.91127e-05
48 *64:12 *282:43 1.47445e-05
49 *83:8 *282:27 9.77674e-06
50 *94:10 *282:49 1.97747e-05
51 *104:8 *444:A1 5.12439e-06
52 *112:12 *282:47 2.0613e-05
53 *112:12 *282:49 4.16195e-06
54 *137:12 *282:43 2.38218e-06
55 *137:12 *282:47 0.000131487
56 *152:16 *282:57 6.00002e-05
57 *152:35 *282:49 0.00118665
58 *170:17 *282:53 2.42461e-05
59 *176:8 *282:27 0.00028608
60 *179:23 *282:43 5.46432e-05
61 *206:8 *444:A1 2.96955e-05
62 *206:8 *282:63 0.000197047
63 *211:21 *474:A1 1.47097e-05
64 *212:26 *282:57 1.60038e-06
65 *212:28 *474:A1 1.86809e-06
66 *212:28 *282:53 7.73613e-05
67 *212:28 *282:57 0.000212724
68 *214:10 *282:63 8.43215e-07
69 *219:8 *282:49 0.00010398
70 *223:21 *282:43 0
71 *234:13 *282:27 0
72 *238:9 *282:11 0.000118037
73 *246:13 *282:13 2.90685e-06
74 *246:13 *282:27 0.000318849
75 *246:21 *282:27 0
76 *247:13 *282:43 1.2752e-06
77 *253:9 *282:11 0.000117498
78 *257:13 *474:A1 4.57414e-05
79 *262:5 *282:13 0.000635858
80 *262:5 *282:27 2.71958e-06
81 *266:5 *282:13 0.000625736
82 *276:33 *444:A1 1.74689e-05
83 *277:13 *282:27 2.94455e-05
84 *278:5 *282:11 1.27296e-05
85 *281:9 *474:A1 0
*RES
1 req[7] *282:11 19.3929 
2 *282:11 *282:13 58.75 
3 *282:13 *282:27 44.9643 
4 *282:27 *282:43 41.5 
5 *282:43 *282:47 24.0357 
6 *282:47 *282:49 81.6786 
7 *282:49 *282:53 12.25 
8 *282:53 *282:57 25.1786 
9 *282:57 *282:63 16.1786 
10 *282:63 *305:A3 10.75 
11 *282:63 *444:A1 18.0357 
12 *282:57 *448:A1 5 
13 *282:53 *474:A1 22.2143 
*END

*D_NET *283 0.00675984
*CONN
*P req[8] I
*I *304:A2 I *D NOR4_X1
*I *503:A2 I *D AND4_X1
*CAP
1 req[8] 2.94439e-06
2 *304:A2 4.79827e-05
3 *503:A2 1.18308e-05
4 *283:17 5.98136e-05
5 *283:15 0.000710851
6 *283:13 0.000710851
7 *283:11 0.00169007
8 *283:9 0.00169301
9 grant[1] *283:9 2.60945e-06
10 grant[29] *283:9 2.60945e-06
11 *394:A *283:15 0
12 *442:A *283:15 5.39412e-06
13 *449:A1 *304:A2 2.30081e-05
14 *449:A1 *503:A2 1.87369e-06
15 *476:A1 *304:A2 1.21774e-06
16 *503:A1 *503:A2 7.19036e-06
17 *503:A1 *283:15 1.66988e-05
18 *503:A4 *304:A2 1.04834e-05
19 *503:A4 *503:A2 1.08036e-06
20 *103:14 *283:15 4.62385e-05
21 *107:8 *283:15 8.92915e-06
22 *109:12 *283:15 0
23 *151:8 *283:15 8.82995e-05
24 *162:12 *283:11 0.000991389
25 *184:8 *283:15 0.0004048
26 *187:8 *283:15 0
27 *188:10 *283:15 4.43274e-05
28 *213:8 *283:15 1.82721e-05
29 *243:49 *283:15 0.000158063
*RES
1 req[8] *283:9 10.5357 
2 *283:9 *283:11 71.82 
3 *283:11 *283:13 5 
4 *283:13 *283:15 104.071 
5 *283:15 *283:17 5 
6 *283:17 *503:A2 6.25 
7 *283:17 *304:A2 11.8571 
*END

*D_NET *284 0.00431663
*CONN
*P req[9] I
*I *451:A1 I *D AND3_X2
*I *502:A I *D INV_X1
*I *304:A1 I *D NOR4_X1
*CAP
1 req[9] 0.00116078
2 *451:A1 5.17015e-06
3 *502:A 4.16104e-05
4 *304:A1 1.94311e-05
5 *284:11 7.38653e-05
6 *284:9 0.000281782
7 *284:5 0.00142457
8 grant[0] *284:5 0.000813066
9 *451:A2 *451:A1 7.19036e-06
10 *451:A2 *502:A 6.707e-06
11 *451:A2 *284:9 0
12 *451:A2 *284:11 0
13 *451:A3 *304:A1 1.66988e-05
14 *451:A3 *284:9 2.94455e-05
15 *451:A3 *284:11 4.11048e-05
16 *476:A1 *304:A1 1.19738e-05
17 *503:A1 *284:11 0
18 *503:A4 *502:A 5.53285e-05
19 *109:12 *304:A1 5.33584e-05
20 *109:12 *502:A 7.19036e-06
21 *109:12 *284:11 1.2203e-05
22 *152:10 *451:A1 7.19036e-06
23 *152:10 *502:A 4.6837e-06
24 *221:9 *284:9 3.01738e-06
25 *248:5 *284:5 0
26 *257:17 *304:A1 4.62745e-06
27 *257:17 *284:9 2.41394e-05
28 *269:7 *284:5 0.000211502
*RES
1 req[9] *284:5 167.036 
2 *284:5 *284:9 36.4643 
3 *284:9 *284:11 2.28572 
4 *284:11 *304:A1 13.9643 
5 *284:11 *502:A 16.1786 
6 *284:9 *451:A1 10.75 
*END

*D_NET *285 0.00567752
*CONN
*P valid O
*I *308:ZN O *D NAND2_X1
*CAP
1 valid 0.000123667
2 *308:ZN 0.000140961
3 *285:12 0.00101865
4 *285:10 0.00103594
5 grant[54] *285:12 0.00025536
6 grant[55] *285:12 0.00045165
7 index[4] valid 2.05033e-06
8 *350:A2 *285:12 0
9 *446:A2 *285:12 0
10 *450:A2 *285:12 1.13266e-05
11 *473:A3 *285:12 0
12 *481:A1 *285:12 0
13 *481:A2 *285:12 0
14 *487:A3 *285:12 0
15 *487:A4 *285:12 0
16 *488:A2 *285:10 0.000310424
17 *488:A2 *285:12 1.18027e-05
18 *14:76 *285:12 2.78705e-05
19 *14:80 *285:12 1.29608e-06
20 *19:14 *285:10 0.000199026
21 *108:10 *285:12 2.35379e-05
22 *127:8 *285:12 0
23 *131:8 *285:10 0.000247984
24 *139:16 *285:12 4.54411e-05
25 *156:12 *285:10 1.06148e-05
26 *188:20 *285:12 0
27 *214:16 *285:12 0.00120122
28 *223:33 *285:10 5.25493e-06
29 *227:7 valid 2.05033e-06
30 *244:9 valid 0.000294437
31 *247:5 *285:12 2.19482e-05
32 *247:9 *285:12 0.000235012
33 *259:5 *285:12 0
*RES
1 *308:ZN *285:10 46.4643 
2 *285:10 *285:12 154.75 
3 *285:12 valid 26.3929 
*END
