*SPEF "ieee 1481-1999"
*DESIGN "design"
*DATE "01:08:21 Wednesday September 16, 2026"
*VENDOR "The OpenROAD Project"
*PROGRAM "OpenROAD"
*VERSION "26Q2-1164-g08f67ee5ec"
*DESIGN_FLOW "NAME_SCOPE LOCAL" "PIN_CAP NONE"
*DIVIDER /
*DELIMITER :
*BUS_DELIMITER []
*T_UNIT 1 NS
*C_UNIT 1 PF
*R_UNIT 1 OHM
*L_UNIT 1 HENRY

*NAME_MAP
*1 _000_
*2 _001_
*3 _002_
*4 _003_
*5 _004_
*6 _005_
*7 _006_
*8 _007_
*9 _008_
*10 _009_
*11 _010_
*12 _011_
*13 _012_
*14 _013_
*15 _014_
*16 _015_
*17 _016_
*18 _017_
*19 _018_
*20 _019_
*21 _020_
*22 _021_
*23 _022_
*24 _023_
*25 _024_
*26 _025_
*27 _026_
*28 _027_
*29 _028_
*30 _029_
*31 _030_
*32 _031_
*33 _032_
*34 _033_
*35 _034_
*36 _035_
*37 _036_
*38 _037_
*39 _038_
*40 _039_
*41 _040_
*42 _041_
*43 _042_
*44 _043_
*45 _044_
*46 _045_
*47 _046_
*48 _047_
*49 _048_
*50 _049_
*51 _050_
*52 _051_
*53 _052_
*54 _053_
*55 _054_
*56 _055_
*57 _056_
*58 _057_
*59 _058_
*60 _059_
*61 _060_
*62 _061_
*63 _062_
*64 _063_
*65 _064_
*66 _065_
*67 _066_
*68 _067_
*69 _068_
*70 _069_
*71 _070_
*72 _071_
*73 _072_
*74 _073_
*75 _074_
*76 _075_
*77 _076_
*78 _077_
*79 _078_
*80 _079_
*81 _080_
*82 _081_
*83 _082_
*84 _083_
*85 _084_
*86 _085_
*87 _086_
*88 _087_
*89 _088_
*90 _089_
*91 _090_
*92 _091_
*93 _092_
*94 _093_
*95 _094_
*96 _095_
*97 _096_
*98 _097_
*99 _098_
*100 _099_
*101 _100_
*102 _101_
*103 _102_
*104 _103_
*105 _104_
*106 _105_
*107 _106_
*108 _107_
*109 _108_
*110 _109_
*111 _110_
*112 _111_
*113 _112_
*114 _113_
*115 _114_
*116 _115_
*117 _116_
*118 _117_
*119 _118_
*120 _119_
*121 _120_
*122 _121_
*123 _122_
*124 _123_
*125 _124_
*126 _125_
*127 _126_
*128 _127_
*129 _128_
*130 _129_
*131 _130_
*132 _131_
*133 _132_
*134 _133_
*135 _134_
*136 _135_
*137 _136_
*138 _137_
*139 _138_
*140 _139_
*141 _140_
*142 _141_
*143 _142_
*144 _143_
*145 _144_
*146 _145_
*147 _146_
*148 _147_
*149 _148_
*150 _149_
*151 _150_
*152 _151_
*153 _152_
*154 _153_
*155 _154_
*156 _155_
*157 _156_
*158 _157_
*159 _158_
*160 _159_
*161 _160_
*162 _161_
*163 grant[0]
*164 grant[10]
*165 grant[11]
*166 grant[12]
*167 grant[13]
*168 grant[14]
*169 grant[15]
*170 grant[16]
*171 grant[17]
*172 grant[18]
*173 grant[19]
*174 grant[1]
*175 grant[20]
*176 grant[21]
*177 grant[22]
*178 grant[23]
*179 grant[24]
*180 grant[25]
*181 grant[26]
*182 grant[27]
*183 grant[28]
*184 grant[29]
*185 grant[2]
*186 grant[30]
*187 grant[31]
*188 grant[32]
*189 grant[33]
*190 grant[34]
*191 grant[35]
*192 grant[36]
*193 grant[37]
*194 grant[38]
*195 grant[39]
*196 grant[3]
*197 grant[40]
*198 grant[41]
*199 grant[42]
*200 grant[43]
*201 grant[44]
*202 grant[45]
*203 grant[46]
*204 grant[47]
*205 grant[48]
*206 grant[49]
*207 grant[4]
*208 grant[50]
*209 grant[51]
*210 grant[52]
*211 grant[53]
*212 grant[54]
*213 grant[55]
*214 grant[56]
*215 grant[57]
*216 grant[58]
*217 grant[59]
*218 grant[5]
*219 grant[60]
*220 grant[61]
*221 grant[62]
*222 grant[63]
*223 grant[6]
*224 grant[7]
*225 grant[8]
*226 grant[9]
*227 index[0]
*228 index[1]
*229 index[2]
*230 index[3]
*231 index[4]
*232 index[5]
*233 req[0]
*234 req[10]
*235 req[11]
*236 req[12]
*237 req[13]
*238 req[14]
*239 req[15]
*240 req[16]
*241 req[17]
*242 req[18]
*243 req[19]
*244 req[1]
*245 req[20]
*246 req[21]
*247 req[22]
*248 req[23]
*249 req[24]
*250 req[25]
*251 req[26]
*252 req[27]
*253 req[28]
*254 req[29]
*255 req[2]
*256 req[30]
*257 req[31]
*258 req[32]
*259 req[33]
*260 req[34]
*261 req[35]
*262 req[36]
*263 req[37]
*264 req[38]
*265 req[39]
*266 req[3]
*267 req[40]
*268 req[41]
*269 req[42]
*270 req[43]
*271 req[44]
*272 req[45]
*273 req[46]
*274 req[47]
*275 req[48]
*276 req[49]
*277 req[4]
*278 req[50]
*279 req[51]
*280 req[52]
*281 req[53]
*282 req[54]
*283 req[55]
*284 req[56]
*285 req[57]
*286 req[58]
*287 req[59]
*288 req[5]
*289 req[60]
*290 req[61]
*291 req[62]
*292 req[63]
*293 req[6]
*294 req[7]
*295 req[8]
*296 req[9]
*297 valid
*298 _162_
*299 _163_
*300 _164_
*301 _165_
*302 _166_
*303 _167_
*304 _168_
*305 _169_
*306 _170_
*307 _171_
*308 _172_
*309 _173_
*310 _174_
*311 _175_
*312 _176_
*313 _177_
*314 _178_
*315 _179_
*316 _180_
*317 _181_
*318 _182_
*319 _183_
*320 _184_
*321 _185_
*322 _186_
*323 _187_
*324 _188_
*325 _189_
*326 _190_
*327 _191_
*328 _192_
*329 _193_
*330 _194_
*331 _195_
*332 _196_
*333 _197_
*334 _198_
*335 _199_
*336 _200_
*337 _201_
*338 _202_
*339 _203_
*340 _204_
*341 _205_
*342 _206_
*343 _207_
*344 _208_
*345 _209_
*346 _210_
*347 _211_
*348 _212_
*349 _213_
*350 _214_
*351 _215_
*352 _216_
*353 _217_
*354 _218_
*355 _219_
*356 _220_
*357 _221_
*358 _222_
*359 _223_
*360 _224_
*361 _225_
*362 _226_
*363 _227_
*364 _228_
*365 _229_
*366 _230_
*367 _231_
*368 _232_
*369 _233_
*370 _234_
*371 _235_
*372 _236_
*373 _237_
*374 _238_
*375 _239_
*376 _240_
*377 _241_
*378 _242_
*379 _243_
*380 _244_
*381 _245_
*382 _246_
*383 _247_
*384 _248_
*385 _249_
*386 _250_
*387 _251_
*388 _252_
*389 _253_
*390 _254_
*391 _255_
*392 _256_
*393 _257_
*394 _258_
*395 _259_
*396 _260_
*397 _261_
*398 _262_
*399 _263_
*400 _264_
*401 _265_
*402 _266_
*403 _267_
*404 _268_
*405 _269_
*406 _270_
*407 _271_
*408 _272_
*409 _273_
*410 _274_
*411 _275_
*412 _276_
*413 _277_
*414 _278_
*415 _279_
*416 _280_
*417 _281_
*418 _282_
*419 _283_
*420 _284_
*421 _285_
*422 _286_
*423 _287_
*424 _288_
*425 _289_
*426 _290_
*427 _291_
*428 _292_
*429 _293_
*430 _294_
*431 _295_
*432 _296_
*433 _297_
*434 _298_
*435 _299_
*436 _300_
*437 _301_
*438 _302_
*439 _303_
*440 _304_
*441 _305_
*442 _306_
*443 _307_
*444 _308_
*445 _309_
*446 _310_
*447 _311_
*448 _312_
*449 _313_
*450 _314_
*451 _315_
*452 _316_
*453 _317_
*454 _318_
*455 _319_
*456 _320_
*457 _321_
*458 _322_
*459 _323_
*460 _324_
*461 _325_
*462 _326_
*463 _327_
*464 _328_
*465 _329_
*466 _330_
*467 _331_
*468 _332_
*469 _333_
*470 _334_
*471 _335_
*472 _336_
*473 _337_
*474 _338_
*475 _339_
*476 _340_
*477 _341_
*478 _342_
*479 _343_
*480 _344_
*481 _345_
*482 _346_
*483 _347_
*484 _348_
*485 _349_
*486 _350_
*487 _351_
*488 _352_
*489 _353_
*490 _354_
*491 _355_
*492 _356_
*493 _357_
*494 _358_
*495 _359_
*496 _360_
*497 _361_
*498 _362_
*499 _363_
*500 _364_
*501 _365_
*502 _366_
*503 _367_
*504 _368_
*505 _369_
*506 _370_
*507 _371_
*508 _372_
*509 _373_
*510 _374_
*511 _375_
*512 _376_
*513 _377_
*514 _378_
*515 _379_
*516 _380_
*517 _381_
*518 _382_
*519 _383_
*520 _384_
*521 _385_
*522 _386_
*523 _387_
*524 _388_
*525 _389_
*526 _390_
*527 _391_
*528 _392_
*529 _393_
*530 _394_

*PORTS
grant[0] O
grant[10] O
grant[11] O
grant[12] O
grant[13] O
grant[14] O
grant[15] O
grant[16] O
grant[17] O
grant[18] O
grant[19] O
grant[1] O
grant[20] O
grant[21] O
grant[22] O
grant[23] O
grant[24] O
grant[25] O
grant[26] O
grant[27] O
grant[28] O
grant[29] O
grant[2] O
grant[30] O
grant[31] O
grant[32] O
grant[33] O
grant[34] O
grant[35] O
grant[36] O
grant[37] O
grant[38] O
grant[39] O
grant[3] O
grant[40] O
grant[41] O
grant[42] O
grant[43] O
grant[44] O
grant[45] O
grant[46] O
grant[47] O
grant[48] O
grant[49] O
grant[4] O
grant[50] O
grant[51] O
grant[52] O
grant[53] O
grant[54] O
grant[55] O
grant[56] O
grant[57] O
grant[58] O
grant[59] O
grant[5] O
grant[60] O
grant[61] O
grant[62] O
grant[63] O
grant[6] O
grant[7] O
grant[8] O
grant[9] O
index[0] O
index[1] O
index[2] O
index[3] O
index[4] O
index[5] O
req[0] I
req[10] I
req[11] I
req[12] I
req[13] I
req[14] I
req[15] I
req[16] I
req[17] I
req[18] I
req[19] I
req[1] I
req[20] I
req[21] I
req[22] I
req[23] I
req[24] I
req[25] I
req[26] I
req[27] I
req[28] I
req[29] I
req[2] I
req[30] I
req[31] I
req[32] I
req[33] I
req[34] I
req[35] I
req[36] I
req[37] I
req[38] I
req[39] I
req[3] I
req[40] I
req[41] I
req[42] I
req[43] I
req[44] I
req[45] I
req[46] I
req[47] I
req[48] I
req[49] I
req[4] I
req[50] I
req[51] I
req[52] I
req[53] I
req[54] I
req[55] I
req[56] I
req[57] I
req[58] I
req[59] I
req[5] I
req[60] I
req[61] I
req[62] I
req[63] I
req[6] I
req[7] I
req[8] I
req[9] I
valid O

*D_NET *1 0.000914542
*CONN
*I *300:A1 I *D AND2_X1
*I *395:A1 I *D NAND2_X1
*I *393:A I *D OAI21_X1
*I *298:ZN O *D NOR4_X2
*CAP
1 *300:A1 5.6228e-05
2 *395:A1 0
3 *393:A 0
4 *298:ZN 9.58993e-05
5 *1:25 0.000110729
6 *1:12 0.0001504
7 *300:A1 *300:A2 1.01247e-05
8 *300:A1 *395:A2 4.84708e-05
9 *300:A1 *403:A 1.91954e-06
10 *300:A1 *2:27 1.66988e-05
11 *300:A1 *94:14 2.15711e-05
12 *300:A1 *245:9 4.12796e-06
13 *300:A1 *282:25 2.94435e-05
14 *1:12 *342:A 9.18551e-06
15 *1:12 *345:A 6.06412e-06
16 *1:12 *346:B2 0.000173176
17 *1:12 *393:B1 1.74934e-05
18 *1:12 *259:17 1.02238e-05
19 *1:12 *285:9 0
20 *1:25 *396:A 6.76399e-05
21 *1:25 *396:B 1.63962e-05
22 *1:25 *421:C1 6.70982e-05
23 *1:25 *287:44 1.65202e-06
*RES
1 *298:ZN *1:12 29.6786 
2 *1:12 *393:A 5 
3 *1:12 *1:25 18.3929 
4 *1:25 *395:A1 5 
5 *1:25 *300:A1 22.6071 
*END

*D_NET *2 0.00086381
*CONN
*I *300:A2 I *D AND2_X1
*I *395:A2 I *D NAND2_X1
*I *421:C2 I *D AOI211_X1
*I *299:ZN O *D NOR4_X2
*CAP
1 *300:A2 9.33365e-06
2 *395:A2 4.97139e-05
3 *421:C2 0
4 *299:ZN 4.5206e-05
5 *2:27 0.000119256
6 *2:14 0.000105415
7 *300:A2 *379:A1 2.75346e-06
8 *395:A2 *345:B2 0
9 *395:A2 *396:B 4.77786e-06
10 *395:A2 *396:C1 3.19164e-07
11 *395:A2 *403:A 0
12 *2:14 *421:A 2.97531e-05
13 *2:14 *90:12 1.25215e-05
14 *2:14 *119:18 2.94435e-05
15 *2:14 *273:17 1.30565e-05
16 *2:14 *274:17 6.63045e-05
17 *2:14 *274:25 1.28334e-05
18 *2:14 *286:37 5.20238e-07
19 *2:14 *286:50 1.39294e-06
20 *2:27 *90:12 4.89324e-05
21 *2:27 *245:9 0.000143483
22 *2:27 *273:17 4.60007e-05
23 *2:27 *282:25 4.74992e-05
24 *300:A1 *300:A2 1.01247e-05
25 *300:A1 *395:A2 4.84708e-05
26 *300:A1 *2:27 1.66988e-05
*RES
1 *299:ZN *2:14 22.6429 
2 *2:14 *421:C2 5 
3 *2:14 *2:27 22.4643 
4 *2:27 *395:A2 10.6786 
5 *2:27 *300:A2 6.25 
*END

*D_NET *3 0.000743405
*CONN
*I *351:C1 I *D AOI211_X1
*I *307:A1 I *D AND2_X2
*I *379:A1 I *D NAND2_X1
*I *300:ZN O *D AND2_X1
*CAP
1 *351:C1 2.22673e-05
2 *307:A1 7.03734e-05
3 *379:A1 5.94105e-05
4 *300:ZN 0
5 *3:19 0.00011333
6 *3:4 8.00996e-05
7 *307:A1 *351:C2 0
8 *307:A1 *9:16 5.92355e-05
9 *307:A1 *51:10 0
10 *351:C1 *351:C2 3.02372e-05
11 *351:C1 *243:9 3.4802e-05
12 *351:C1 *245:9 0.000116952
13 *379:A1 *391:C1 0
14 *379:A1 *403:A 0
15 *379:A1 *79:10 3.09411e-06
16 *379:A1 *94:14 0
17 *3:19 *243:9 4.21054e-05
18 *3:19 *245:9 0.000108745
19 *300:A2 *379:A1 2.75346e-06
*RES
1 *300:ZN *3:4 5 
2 *3:4 *379:A1 11.6071 
3 *3:4 *3:19 10.6786 
4 *3:19 *307:A1 20.25 
5 *3:19 *351:C1 16.3571 
*END

*D_NET *4 0.000199175
*CONN
*I *304:A1 I *D NAND3_X4
*I *301:ZN O *D INV_X1
*CAP
1 *304:A1 4.04079e-05
2 *301:ZN 4.04079e-05
3 *304:A1 *303:A1 4.48548e-05
4 *304:A1 *304:A3 1.03315e-06
5 *304:A1 *347:B1 3.93453e-05
6 *304:A1 *6:6 8.43215e-07
7 *304:A1 *245:9 1.16067e-05
8 *304:A1 *252:9 2.06764e-05
*RES
1 *301:ZN *304:A1 27.2143 
*END

*D_NET *5 0.00030195
*CONN
*I *347:B1 I *D AOI21_X1
*I *304:A2 I *D NAND3_X4
*I *302:ZN O *D INV_X1
*CAP
1 *347:B1 4.03011e-05
2 *304:A2 0
3 *302:ZN 4.48986e-05
4 *5:10 8.51997e-05
5 *347:B1 *303:A1 3.65322e-06
6 *347:B1 *304:A3 2.39679e-06
7 *347:B1 *350:A 1.25189e-05
8 *347:B1 *280:17 8.0019e-06
9 *347:B1 *283:32 2.75346e-06
10 *5:10 *302:A 3.94694e-05
11 *5:10 *303:A1 4.12796e-06
12 *5:10 *394:C1 1.72405e-05
13 *5:10 *252:9 2.04312e-06
14 *5:10 *292:9 0
15 *304:A1 *347:B1 3.93453e-05
*RES
1 *302:ZN *5:10 21.3571 
2 *5:10 *304:A2 5 
3 *5:10 *347:B1 10.75 
*END

*D_NET *6 0.000294572
*CONN
*I *304:A3 I *D NAND3_X4
*I *394:C1 I *D AOI211_X1
*I *303:ZN O *D NOR2_X4
*CAP
1 *304:A3 6.07445e-06
2 *394:C1 4.70996e-05
3 *303:ZN 2.32794e-05
4 *6:6 7.64535e-05
5 *304:A3 *280:17 6.48216e-07
6 *394:C1 *302:A 1.02321e-05
7 *394:C1 *303:A1 4.26902e-05
8 *394:C1 *394:B 2.75346e-06
9 *394:C1 *394:C2 1.21774e-06
10 *394:C1 *7:10 1.65484e-05
11 *394:C1 *259:15 3.23723e-07
12 *394:C1 *291:23 1.09662e-05
13 *394:C1 *292:9 0
14 *6:6 *303:A1 3.01852e-05
15 *6:6 *259:15 0
16 *6:6 *280:17 4.32144e-07
17 *6:6 *291:23 4.15369e-06
18 *304:A1 *304:A3 1.03315e-06
19 *304:A1 *6:6 8.43215e-07
20 *347:B1 *304:A3 2.39679e-06
21 *5:10 *394:C1 1.72405e-05
*RES
1 *303:ZN *6:6 8.25 
2 *6:6 *394:C1 22.1071 
3 *6:6 *304:A3 5.75 
*END

*D_NET *7 0.00160372
*CONN
*I *306:A3 I *D NOR4_X4
*I *350:B2 I *D OAI21_X1
*I *421:C1 I *D AOI211_X1
*I *304:ZN O *D NAND3_X4
*CAP
1 *306:A3 0.000130355
2 *350:B2 4.33909e-05
3 *421:C1 0.000186192
4 *304:ZN 5.10003e-05
5 *7:12 0.000266895
6 *7:10 0.000218668
7 *306:A3 *305:A2 1.80853e-05
8 *306:A3 *306:A4 0
9 *306:A3 *348:A 6.65423e-06
10 *306:A3 *350:B1 0
11 *306:A3 *394:C2 0
12 *350:B2 *350:B1 1.21774e-06
13 *350:B2 *289:57 1.03067e-05
14 *421:C1 *396:A 0.000103733
15 *421:C1 *396:B 7.93012e-05
16 *421:C1 *421:B 2.44242e-05
17 *421:C1 *41:10 3.43763e-05
18 *421:C1 *90:12 8.26038e-06
19 *421:C1 *93:10 0.000173256
20 *421:C1 *94:14 4.16195e-06
21 *421:C1 *252:9 4.33419e-06
22 *421:C1 *274:17 2.3233e-05
23 *421:C1 *274:25 1.3143e-06
24 *421:C1 *291:23 0
25 *7:10 *302:A 2.89018e-05
26 *7:10 *394:A 1.25215e-05
27 *7:10 *93:10 3.09028e-05
28 *7:10 *252:9 4.62745e-06
29 *7:10 *259:15 1.25215e-05
30 *7:10 *291:23 0
31 *7:12 *93:10 4.14348e-05
32 *7:12 *291:23 0
33 *394:C1 *7:10 1.65484e-05
34 *1:25 *421:C1 6.70982e-05
*RES
1 *304:ZN *7:10 18.2857 
2 *7:10 *7:12 5.67857 
3 *7:12 *421:C1 42.8929 
4 *7:12 *350:B2 15.25 
5 *7:10 *306:A3 25.25 
*END

*D_NET *8 0.000416259
*CONN
*I *306:A4 I *D NOR4_X4
*I *394:C2 I *D AOI211_X1
*I *305:ZN O *D OR2_X2
*CAP
1 *306:A4 2.42083e-05
2 *394:C2 0.000139917
3 *305:ZN 3.31808e-05
4 *8:6 0.000197306
5 *306:A4 *305:A1 2.52965e-06
6 *306:A4 *259:15 0
7 *394:C2 *394:A 3.51992e-06
8 *394:C2 *394:B 1.1519e-06
9 *394:C2 *93:10 7.72537e-06
10 *394:C2 *259:15 0
11 *394:C2 *282:29 3.73618e-06
12 *8:6 *259:15 1.76665e-06
13 *306:A3 *306:A4 0
14 *306:A3 *394:C2 0
15 *394:C1 *394:C2 1.21774e-06
*RES
1 *305:ZN *8:6 8.64286 
2 *8:6 *394:C2 19.25 
3 *8:6 *306:A4 7.67857 
*END

*D_NET *9 0.00165308
*CONN
*I *307:A2 I *D AND2_X2
*I *379:A2 I *D NAND2_X1
*I *427:B1 I *D AOI21_X1
*I *306:ZN O *D NOR4_X4
*CAP
1 *307:A2 0
2 *379:A2 0
3 *427:B1 8.43875e-05
4 *306:ZN 0.000113069
5 *9:16 0.000186877
6 *9:10 0.000215558
7 *427:B1 *403:A 0.000240594
8 *427:B1 *403:B1 7.63158e-06
9 *427:B1 *79:10 1.14365e-05
10 *427:B1 *79:12 4.12796e-06
11 *427:B1 *124:12 1.25189e-05
12 *427:B1 *268:49 2.10799e-05
13 *427:B1 *279:13 0.000271602
14 *9:10 *306:A2 0.000183617
15 *9:10 *51:10 0
16 *9:10 *248:9 9.51823e-06
17 *9:10 *290:29 5.57891e-05
18 *9:16 *51:10 0
19 *9:16 *79:10 4.43868e-06
20 *9:16 *243:9 0
21 *9:16 *243:13 0
22 *9:16 *279:13 0.000171595
23 *307:A1 *9:16 5.92355e-05
*RES
1 *306:ZN *9:10 32.2143 
2 *9:10 *9:16 19.8214 
3 *9:16 *427:B1 29.25 
4 *9:16 *379:A2 10 
5 *9:10 *307:A2 5 
*END

*D_NET *10 3.01606e-05
*CONN
*I *308:A I *D BUF_X4
*I *307:ZN O *D AND2_X2
*CAP
1 *308:A 1.50803e-05
2 *307:ZN 1.50803e-05
*RES
1 *307:ZN *308:A 11.6071 
*END

*D_NET *11 0.00362294
*CONN
*I *529:A1 I *D NOR2_X1
*I *528:A1 I *D NOR2_X1
*I *526:A1 I *D NOR2_X1
*I *527:A1 I *D NOR2_X1
*I *432:A1 I *D NAND2_X1
*I *515:A I *D CLKBUF_X1
*I *315:A1 I *D AND2_X4
*I *480:A1 I *D NAND3_X1
*I *403:B2 I *D AOI21_X1
*I *308:Z O *D BUF_X4
*CAP
1 *529:A1 2.41746e-05
2 *528:A1 0
3 *526:A1 0
4 *527:A1 0
5 *432:A1 3.96649e-06
6 *515:A 8.95027e-05
7 *315:A1 6.9182e-05
8 *480:A1 0
9 *403:B2 0.000150934
10 *308:Z 0.000113491
11 *11:87 0.000160583
12 *11:48 0.0001939
13 *11:44 7.62674e-05
14 *11:35 0.000140802
15 *11:16 0.000354446
16 *11:12 0.000106371
17 *11:8 1.52881e-05
18 *11:6 0.000258613
19 *315:A1 *432:A2 3.73261e-06
20 *315:A1 *17:18 7.72537e-06
21 *315:A1 *222:12 0
22 *315:A1 *257:21 9.18164e-06
23 *315:A1 *269:13 0
24 *403:B2 *403:B1 1.21774e-06
25 *403:B2 *413:A 6.6804e-05
26 *403:B2 *413:B2 0
27 *403:B2 *428:A2 9.04162e-05
28 *403:B2 *111:18 0
29 *403:B2 *268:49 0
30 *432:A1 *428:A1 1.72426e-05
31 *432:A1 *257:13 2.72417e-06
32 *515:A *222:12 0
33 *515:A *269:13 2.46197e-05
34 *529:A1 *529:A2 2.39679e-06
35 *529:A1 *155:17 4.11048e-05
36 *529:A1 *183:10 1.48912e-05
37 *529:A1 *216:16 8.87679e-06
38 *529:A1 *275:29 7.19036e-06
39 *11:6 *493:A2 7.16188e-07
40 *11:6 *526:A2 2.16072e-07
41 *11:6 *51:10 2.97531e-05
42 *11:6 *275:29 2.45893e-05
43 *11:12 *20:49 4.29819e-05
44 *11:12 *164:8 3.8984e-05
45 *11:16 *20:38 0.000154896
46 *11:16 *20:49 0.00029626
47 *11:16 *164:8 0.000542909
48 *11:16 *182:10 2.0188e-05
49 *11:35 *413:B2 0
50 *11:35 *428:A2 3.83653e-05
51 *11:35 *480:A2 1.80284e-05
52 *11:35 *20:10 2.37916e-06
53 *11:35 *20:27 0
54 *11:35 *159:8 2.06764e-05
55 *11:35 *182:12 2.61469e-06
56 *11:35 *201:12 6.84295e-05
57 *11:44 *428:A1 8.43215e-07
58 *11:44 *428:A2 1.45094e-05
59 *11:44 *432:A2 3.95236e-05
60 *11:44 *480:A3 1.87369e-06
61 *11:44 *182:12 3.0844e-06
62 *11:48 *428:A1 0.000104499
63 *11:48 *432:A2 0
64 *11:48 *257:13 1.72113e-05
65 *11:87 *468:A1 6.48216e-07
66 *11:87 *470:A4 1.28122e-06
67 *11:87 *493:A2 2.91089e-06
68 *11:87 *526:A2 2.51631e-06
69 *11:87 *529:A2 7.19036e-06
70 *11:87 *154:8 0
71 *11:87 *216:16 5.93124e-05
72 *11:87 *230:38 9.9032e-06
*RES
1 *308:Z *11:6 18.75 
2 *11:6 *11:8 0.928572 
3 *11:8 *11:12 7.28572 
4 *11:12 *11:16 33.75 
5 *11:16 *403:B2 26.1786 
6 *11:16 *11:35 24.1429 
7 *11:35 *480:A1 5 
8 *11:35 *11:44 10.75 
9 *11:44 *11:48 10.6786 
10 *11:48 *315:A1 12.8571 
11 *11:48 *515:A 15.25 
12 *11:44 *432:A1 10.9286 
13 *11:12 *527:A1 10 
14 *11:8 *526:A1 5 
15 *11:6 *11:87 15.75 
16 *11:87 *528:A1 5 
17 *11:87 *529:A1 18.7857 
*END

*D_NET *12 0.00129331
*CONN
*I *420:B1 I *D AOI21_X1
*I *311:A1 I *D NAND2_X1
*I *398:A I *D OAI21_X1
*I *309:ZN O *D NOR4_X2
*CAP
1 *420:B1 0.000158897
2 *311:A1 2.34355e-05
3 *398:A 0
4 *309:ZN 0.000132251
5 *12:25 0.000258984
6 *12:14 0.000208903
7 *311:A1 *402:C2 3.16862e-06
8 *311:A1 *403:B1 7.2187e-06
9 *311:A1 *419:A1 0
10 *311:A1 *13:8 0
11 *420:B1 *420:A 2.75346e-06
12 *420:B1 *420:B2 4.78054e-06
13 *420:B1 *119:18 1.28122e-06
14 *420:B1 *222:8 4.96959e-05
15 *420:B1 *268:49 2.50966e-05
16 *420:B1 *273:17 0
17 *12:14 *388:C2 1.20697e-05
18 *12:14 *402:A 0.000223036
19 *12:14 *402:B 2.31472e-05
20 *12:14 *268:49 0
21 *12:14 *273:17 0
22 *12:14 *273:25 2.15252e-05
23 *12:25 *398:B1 2.75346e-06
24 *12:25 *402:C2 9.38795e-05
25 *12:25 *13:8 2.04311e-05
26 *12:25 *222:8 2.00032e-05
*RES
1 *309:ZN *12:14 34.1786 
2 *12:14 *398:A 5 
3 *12:14 *12:25 16.7143 
4 *12:25 *311:A1 12.6786 
5 *12:25 *420:B1 28.7857 
*END

*D_NET *13 0.000726537
*CONN
*I *388:C1 I *D AOI221_X1
*I *311:A2 I *D NAND2_X1
*I *419:A1 I *D NAND2_X1
*I *310:ZN O *D NOR4_X2
*CAP
1 *388:C1 3.67751e-05
2 *311:A2 1.45174e-05
3 *419:A1 4.6237e-05
4 *310:ZN 0.000142971
5 *13:8 0.000166951
6 *311:A2 *402:C2 1.76665e-06
7 *388:C1 *388:B1 9.9131e-06
8 *388:C1 *388:C2 4.77786e-06
9 *388:C1 *264:9 3.50282e-05
10 *388:C1 *268:57 6.70982e-05
11 *419:A1 *403:B1 0
12 *419:A1 *14:6 9.74616e-06
13 *419:A1 *269:17 1.05415e-05
14 *13:8 *310:A2 3.04684e-06
15 *13:8 *382:A 8.5384e-06
16 *13:8 *398:B2 2.2822e-05
17 *13:8 *402:C2 0
18 *13:8 *269:17 0.000125376
19 *311:A1 *419:A1 0
20 *311:A1 *13:8 0
21 *12:25 *13:8 2.04311e-05
*RES
1 *310:ZN *13:8 21.0357 
2 *13:8 *419:A1 10.75 
3 *13:8 *311:A2 6.60714 
4 *310:ZN *388:C1 26.25 
*END

*D_NET *14 0.00119484
*CONN
*I *402:C2 I *D OAI211_X1
*I *427:B2 I *D AOI21_X1
*I *314:A1 I *D NOR3_X4
*I *311:ZN O *D NAND2_X1
*CAP
1 *402:C2 7.8927e-05
2 *427:B2 7.61064e-05
3 *314:A1 3.84076e-05
4 *311:ZN 0.00014823
5 *14:6 0.000183817
6 *314:A1 *251:21 0.000221992
7 *314:A1 *274:17 0.000221992
8 *402:C2 *402:C1 6.65423e-06
9 *402:C2 *403:B1 0
10 *427:B2 *403:B1 6.3924e-06
11 *427:B2 *243:13 6.84316e-05
12 *427:B2 *245:13 1.46266e-05
13 *427:B2 *269:17 0
14 *14:6 *403:B1 1.50098e-05
15 *14:6 *420:B2 5.69552e-06
16 *14:6 *269:17 0
17 *311:A1 *402:C2 3.16862e-06
18 *311:A2 *402:C2 1.76665e-06
19 *419:A1 *14:6 9.74616e-06
20 *12:25 *402:C2 9.38795e-05
21 *13:8 *402:C2 0
*RES
1 *311:ZN *14:6 13.25 
2 *14:6 *314:A1 26.7857 
3 *14:6 *427:B2 24.3929 
4 *311:ZN *402:C2 20.8571 
*END

*D_NET *15 0.00104707
*CONN
*I *314:A2 I *D NOR3_X4
*I *419:A2 I *D NAND2_X1
*I *400:A I *D AOI21_X1
*I *387:B2 I *D OAI21_X1
*I *312:ZN O *D OR4_X1
*CAP
1 *314:A2 4.53946e-05
2 *419:A2 2.28389e-05
3 *400:A 2.40527e-05
4 *387:B2 0
5 *312:ZN 3.59698e-05
6 *15:36 0.000259363
7 *15:21 0.000266193
8 *15:8 8.69799e-05
9 *314:A2 *17:14 1.19839e-05
10 *314:A2 *222:12 0
11 *314:A2 *269:17 0
12 *400:A *400:B1 4.24402e-05
13 *400:A *85:8 1.60566e-05
14 *419:A2 *284:9 4.11266e-05
15 *419:A2 *286:37 0.000107416
16 *15:8 *312:A4 1.73125e-05
17 *15:8 *383:A 3.09143e-06
18 *15:8 *387:B1 8.43215e-07
19 *15:8 *388:C2 8.26038e-06
20 *15:8 *401:A1 2.52965e-06
21 *15:8 *401:A2 9.01846e-07
22 *15:21 *387:B1 1.95807e-05
23 *15:21 *401:A3 1.60038e-06
24 *15:21 *402:C1 7.54693e-06
25 *15:21 *265:37 0
26 *15:36 *402:C1 0
27 *15:36 *85:8 2.5592e-05
28 *15:36 *222:8 0
29 *15:36 *222:12 0
30 *15:36 *259:17 0
31 *15:36 *265:37 0
32 *15:36 *269:17 0
*RES
1 *312:ZN *15:8 9.17857 
2 *15:8 *387:B2 5 
3 *15:8 *15:21 11.4643 
4 *15:21 *400:A 13.1786 
5 *15:21 *15:36 25.4643 
6 *15:36 *419:A2 20.6786 
7 *15:36 *314:A2 9.75 
*END

*D_NET *16 0.000568324
*CONN
*I *314:A3 I *D NOR3_X4
*I *313:ZN O *D OR4_X1
*CAP
1 *314:A3 0.000127781
2 *313:ZN 0.000127781
3 *314:A3 *313:A4 3.38217e-05
4 *314:A3 *265:37 3.32599e-05
5 *314:A3 *269:17 1.19839e-05
6 *314:A3 *274:17 0.000221455
7 *314:A3 *286:37 1.22418e-05
*RES
1 *313:ZN *314:A3 40.2857 
*END

*D_NET *17 0.00124836
*CONN
*I *480:A2 I *D NAND3_X1
*I *315:A2 I *D AND2_X4
*I *431:A1 I *D NAND2_X1
*I *314:ZN O *D NOR3_X4
*CAP
1 *480:A2 4.18556e-05
2 *315:A2 0
3 *431:A1 7.22099e-06
4 *314:ZN 0.000349055
5 *17:18 3.58012e-05
6 *17:14 0.000419491
7 *431:A1 *443:B1 6.38328e-07
8 *480:A2 *480:A3 2.75346e-06
9 *480:A2 *20:10 0.000105295
10 *480:A2 *182:12 5.99828e-06
11 *480:A2 *201:12 2.18109e-05
12 *17:14 *321:A1 1.79884e-05
13 *17:14 *321:A4 4.21607e-06
14 *17:14 *352:A 3.19546e-06
15 *17:14 *443:B1 2.4843e-05
16 *17:14 *443:C1 7.72537e-06
17 *17:14 *443:C2 1.67775e-05
18 *17:14 *52:16 2.22229e-05
19 *17:14 *222:12 0
20 *17:14 *253:17 1.68643e-06
21 *17:14 *256:27 0
22 *17:14 *257:21 0.000108993
23 *17:14 *269:13 7.45437e-06
24 *17:14 *269:17 0
25 *17:18 *432:A2 3.09143e-06
26 *17:18 *443:B1 1.86809e-06
27 *17:18 *257:21 6.42887e-07
28 *314:A2 *17:14 1.19839e-05
29 *315:A1 *17:18 7.72537e-06
30 *11:35 *480:A2 1.80284e-05
*RES
1 *314:ZN *17:14 47.1072 
2 *17:14 *17:18 3.35714 
3 *17:18 *431:A1 5.92857 
4 *17:18 *315:A2 5 
5 *17:14 *480:A2 22.4286 
*END

*D_NET *18 0.000917164
*CONN
*I *319:A I *D BUF_X1
*I *418:A I *D OAI21_X1
*I *316:A I *D INV_X2
*I *315:ZN O *D AND2_X4
*CAP
1 *319:A 2.09381e-05
2 *418:A 0
3 *316:A 3.94685e-05
4 *315:ZN 0.000108694
5 *18:8 0.000127224
6 *316:A *339:A2 2.52975e-05
7 *316:A *418:B1 5.10699e-05
8 *316:A *418:B2 2.75346e-06
9 *316:A *426:A2 1.14365e-05
10 *316:A *112:16 2.94455e-05
11 *316:A *258:27 4.12459e-06
12 *319:A *182:12 4.48522e-05
13 *319:A *269:13 4.48522e-05
14 *18:8 *426:A2 8.56664e-06
15 *18:8 *480:A3 0.000100547
16 *18:8 *20:10 7.2982e-05
17 *18:8 *112:16 0.000219622
18 *18:8 *201:12 5.28986e-06
*RES
1 *315:ZN *18:8 27.2143 
2 *18:8 *316:A 17.3571 
3 *18:8 *418:A 10 
4 *315:ZN *319:A 14.25 
*END

*D_NET *19 0.000118969
*CONN
*I *317:A I *D BUF_X4
*I *426:A1 I *D OR2_X1
*I *316:ZN O *D INV_X2
*CAP
1 *317:A 2.35013e-05
2 *426:A1 0
3 *316:ZN 1.24504e-05
4 *19:8 3.59517e-05
5 *317:A *428:A1 1.77822e-05
6 *317:A *112:16 0
7 *317:A *219:8 1.33704e-05
8 *19:8 *418:B1 4.7875e-06
9 *19:8 *112:16 0
10 *19:8 *219:8 1.11258e-05
*RES
1 *316:ZN *19:8 11.6071 
2 *19:8 *426:A1 10 
3 *19:8 *317:A 12.9643 
*END

*D_NET *20 0.00515235
*CONN
*I *475:A1 I *D NOR3_X1
*I *467:A1 I *D NOR3_X1
*I *479:A1 I *D NOR3_X1
*I *477:A1 I *D NOR3_X1
*I *473:A1 I *D NOR3_X1
*I *469:A1 I *D NOR3_X1
*I *471:A1 I *D NOR3_X1
*I *391:B2 I *D OAI221_X1
*I *413:B2 I *D OAI21_X4
*I *318:A I *D BUF_X1
*I *317:Z O *D BUF_X4
*CAP
1 *475:A1 5.06276e-05
2 *467:A1 8.67856e-05
3 *479:A1 0
4 *477:A1 2.32751e-05
5 *473:A1 0
6 *469:A1 5.69473e-06
7 *471:A1 7.37486e-06
8 *391:B2 8.00021e-05
9 *413:B2 3.68404e-05
10 *318:A 0.000186944
11 *317:Z 0.000139634
12 *20:105 0.000115659
13 *20:101 0.000180296
14 *20:82 0.000132782
15 *20:75 9.57692e-05
16 *20:60 0.000139338
17 *20:49 0.000175244
18 *20:38 0.000246404
19 *20:27 0.000183495
20 *20:10 0.000428113
21 *318:A *320:A 0.000141304
22 *318:A *428:A1 1.87369e-06
23 *318:A *428:A2 7.31002e-05
24 *318:A *429:A 3.93465e-06
25 *318:A *128:10 2.98187e-05
26 *318:A *145:12 0
27 *318:A *166:20 0
28 *318:A *166:24 1.25189e-05
29 *318:A *182:12 0
30 *318:A *232:8 1.91498e-06
31 *318:A *232:23 6.38328e-07
32 *318:A *265:25 6.29595e-05
33 *391:B2 *391:A 8.43215e-07
34 *391:B2 *392:A 0
35 *391:B2 *422:A2 0.000104712
36 *391:B2 *434:A 2.39679e-06
37 *391:B2 *119:18 0
38 *391:B2 *227:10 0
39 *413:B2 *111:18 7.72537e-06
40 *413:B2 *268:43 4.96432e-05
41 *467:A1 *479:A2 7.72537e-06
42 *467:A1 *495:A2 2.41487e-06
43 *467:A1 *514:A3 8.43215e-07
44 *467:A1 *128:39 0
45 *467:A1 *128:45 5.78279e-06
46 *467:A1 *151:12 2.75346e-06
47 *467:A1 *151:18 0.00011136
48 *467:A1 *156:14 1.28122e-06
49 *467:A1 *184:16 8.30282e-06
50 *469:A1 *151:49 7.19036e-06
51 *469:A1 *259:9 0
52 *471:A1 *471:A3 3.09143e-06
53 *475:A1 *475:A2 4.41389e-05
54 *475:A1 *151:31 2.96955e-05
55 *475:A1 *151:33 7.19036e-06
56 *475:A1 *203:14 2.03335e-05
57 *475:A1 *261:9 2.08098e-06
58 *477:A1 *477:A3 2.75346e-06
59 *477:A1 *151:33 2.75346e-06
60 *477:A1 *151:39 3.98394e-05
61 *477:A1 *168:10 7.94852e-06
62 *477:A1 *259:9 9.62051e-07
63 *477:A1 *260:15 7.54346e-07
64 *20:10 *432:A2 5.94167e-07
65 *20:10 *480:A3 1.02017e-05
66 *20:10 *159:8 4.29819e-05
67 *20:10 *201:12 3.50172e-05
68 *20:10 *257:13 0
69 *20:10 *261:15 1.08561e-05
70 *20:10 *265:37 5.58661e-05
71 *20:27 *159:8 0.000102624
72 *20:27 *166:20 1.74934e-05
73 *20:27 *257:13 0
74 *20:27 *268:43 9.12642e-05
75 *20:38 *182:10 1.52977e-05
76 *20:38 *251:17 2.82617e-05
77 *20:49 *471:A2 1.72405e-05
78 *20:49 *471:A3 7.51705e-05
79 *20:49 *154:19 0.000143485
80 *20:49 *154:30 2.57414e-05
81 *20:49 *164:8 6.99047e-05
82 *20:49 *181:12 4.77695e-05
83 *20:49 *182:10 3.84569e-05
84 *20:49 *251:17 1.52083e-06
85 *20:60 *471:A2 0.000151248
86 *20:60 *164:8 5.11191e-06
87 *20:60 *181:12 4.32907e-05
88 *20:60 *217:12 7.16887e-06
89 *20:75 *473:A2 7.72792e-06
90 *20:75 *21:53 6.38328e-07
91 *20:75 *151:39 6.85774e-07
92 *20:75 *151:49 3.25884e-05
93 *20:75 *164:8 5.11191e-06
94 *20:75 *166:8 1.32348e-05
95 *20:75 *217:12 4.40064e-06
96 *20:75 *256:13 0
97 *20:75 *259:9 0
98 *20:101 *473:A3 6.82202e-07
99 *20:101 *477:A3 5.51527e-05
100 *20:101 *21:66 0
101 *20:101 *21:73 3.92518e-05
102 *20:101 *21:82 2.39679e-06
103 *20:101 *151:33 4.96524e-05
104 *20:101 *204:8 1.87418e-05
105 *20:105 *514:A3 1.045e-05
106 *20:105 *151:31 7.85075e-05
107 *20:105 *204:10 4.90397e-06
108 *403:B2 *413:B2 0
109 *480:A2 *20:10 0.000105295
110 *11:12 *20:49 4.29819e-05
111 *11:16 *20:38 0.000154896
112 *11:16 *20:49 0.00029626
113 *11:35 *413:B2 0
114 *11:35 *20:10 2.37916e-06
115 *11:35 *20:27 0
116 *18:8 *20:10 7.2982e-05
*RES
1 *317:Z *20:10 32.4643 
2 *20:10 *318:A 37.6786 
3 *20:10 *20:27 19.4286 
4 *20:27 *413:B2 9.75 
5 *20:27 *20:38 13.3929 
6 *20:38 *391:B2 20.75 
7 *20:38 *20:49 28.75 
8 *20:49 *471:A1 10.75 
9 *20:49 *20:60 9.07143 
10 *20:60 *469:A1 10.75 
11 *20:60 *20:75 16.3571 
12 *20:75 *473:A1 5 
13 *20:75 *20:82 0.928572 
14 *20:82 *477:A1 18.7857 
15 *20:82 *20:101 20.75 
16 *20:101 *20:105 9.32143 
17 *20:105 *479:A1 5 
18 *20:105 *467:A1 17.1071 
19 *20:101 *475:A1 17.0357 
*END

*D_NET *21 0.00364137
*CONN
*I *450:C1 I *D AOI211_X2
*I *444:C1 I *D AOI211_X1
*I *512:A1 I *D NOR3_X1
*I *508:A1 I *D NOR3_X1
*I *514:A1 I *D NOR3_X1
*I *513:A1 I *D NOR3_X1
*I *511:A1 I *D NOR3_X1
*I *509:A1 I *D NOR3_X1
*I *510:A1 I *D NOR3_X1
*I *320:A I *D BUF_X1
*I *319:Z O *D BUF_X1
*CAP
1 *450:C1 0
2 *444:C1 0
3 *512:A1 0
4 *508:A1 7.42833e-05
5 *514:A1 0
6 *513:A1 0
7 *511:A1 0
8 *509:A1 0
9 *510:A1 0
10 *320:A 8.24658e-05
11 *319:Z 3.38357e-05
12 *21:82 0.000121904
13 *21:73 9.90823e-05
14 *21:66 0.000125062
15 *21:53 0.000105627
16 *21:46 0.000112313
17 *21:35 0.000225615
18 *21:31 0.000190507
19 *21:23 0.000176193
20 *21:8 0.000247316
21 *320:A *429:A 3.52625e-05
22 *320:A *126:10 1.3414e-05
23 *320:A *166:20 0
24 *508:A1 *475:A3 1.33704e-05
25 *508:A1 *495:A2 6.70962e-05
26 *508:A1 *156:10 3.6463e-05
27 *508:A1 *161:118 5.91545e-05
28 *508:A1 *289:47 5.86221e-05
29 *508:A1 *297:16 1.41798e-05
30 *21:8 *219:8 9.49605e-05
31 *21:23 *450:A 1.19839e-05
32 *21:23 *165:12 1.39316e-05
33 *21:23 *219:8 0.000217997
34 *21:23 *251:9 3.12001e-05
35 *21:23 *268:39 0
36 *21:31 *450:A 1.62465e-05
37 *21:31 *139:14 8.0521e-05
38 *21:31 *159:8 8.59171e-06
39 *21:31 *228:14 2.39679e-06
40 *21:31 *228:27 1.08381e-05
41 *21:31 *268:43 0
42 *21:35 *422:A1 4.16464e-05
43 *21:35 *468:A1 7.42616e-05
44 *21:35 *470:A2 0.000207788
45 *21:35 *470:A4 1.97744e-05
46 *21:35 *121:8 5.59765e-05
47 *21:35 *121:85 0.000126903
48 *21:35 *201:12 9.08759e-06
49 *21:35 *228:27 2.28364e-05
50 *21:35 *237:29 3.27472e-05
51 *21:35 *260:15 5.33208e-05
52 *21:35 *260:23 2.17109e-05
53 *21:46 *153:19 2.70375e-05
54 *21:46 *217:12 3.82563e-06
55 *21:46 *237:29 1.03572e-05
56 *21:46 *260:15 7.77402e-05
57 *21:53 *473:A2 1.43238e-06
58 *21:53 *473:A3 1.21774e-06
59 *21:53 *509:A2 2.77965e-05
60 *21:53 *511:A3 1.21774e-06
61 *21:53 *151:49 1.62142e-05
62 *21:53 *159:23 0
63 *21:53 *201:10 4.87096e-06
64 *21:66 *473:A3 3.09143e-06
65 *21:66 *477:A3 3.02372e-05
66 *21:66 *511:A3 1.87369e-06
67 *21:66 *513:A3 7.19036e-06
68 *21:66 *155:25 1.14272e-05
69 *21:66 *157:34 1.66988e-05
70 *21:73 *513:A2 0.000111114
71 *21:73 *128:45 2.39679e-06
72 *21:73 *204:8 1.87418e-05
73 *21:82 *475:A2 7.24915e-06
74 *21:82 *475:A3 8.43215e-07
75 *21:82 *128:39 2.39679e-06
76 *21:82 *128:45 2.58848e-05
77 *21:82 *151:33 4.32144e-07
78 *318:A *320:A 0.000141304
79 *20:75 *21:53 6.38328e-07
80 *20:101 *21:66 0
81 *20:101 *21:73 3.92518e-05
82 *20:101 *21:82 2.39679e-06
*RES
1 *319:Z *21:8 15 
2 *21:8 *320:A 23.25 
3 *21:8 *21:23 24.0357 
4 *21:23 *21:31 17.0357 
5 *21:31 *21:35 33.0714 
6 *21:35 *510:A1 10 
7 *21:35 *21:46 16.7857 
8 *21:46 *509:A1 5 
9 *21:46 *21:53 4.75 
10 *21:53 *511:A1 5 
11 *21:53 *21:66 18.0357 
12 *21:66 *513:A1 5 
13 *21:66 *21:73 10.25 
14 *21:73 *514:A1 5 
15 *21:73 *21:82 5.67857 
16 *21:82 *508:A1 28.2143 
17 *21:82 *512:A1 5 
18 *21:31 *444:C1 5 
19 *21:23 *450:C1 5 
*END

*D_NET *22 0.00415387
*CONN
*I *500:A1 I *D NOR3_X1
*I *498:A1 I *D NOR3_X1
*I *499:A1 I *D NOR3_X1
*I *507:A1 I *D NOR3_X1
*I *503:A1 I *D NOR3_X1
*I *505:A1 I *D NOR3_X1
*I *504:A1 I *D NOR3_X1
*I *506:A1 I *D NOR3_X1
*I *502:A1 I *D NOR3_X1
*I *339:A1 I *D NAND4_X1
*I *320:Z O *D BUF_X1
*CAP
1 *500:A1 0
2 *498:A1 2.36645e-05
3 *499:A1 7.59824e-06
4 *507:A1 0
5 *503:A1 2.83744e-05
6 *505:A1 0
7 *504:A1 6.05934e-06
8 *506:A1 0
9 *502:A1 0
10 *339:A1 0.000134725
11 *320:Z 0.000150277
12 *22:93 5.58926e-05
13 *22:89 0.000140196
14 *22:80 0.000273369
15 *22:61 0.000233651
16 *22:52 6.0037e-05
17 *22:41 0.000107763
18 *22:16 0.00014788
19 *22:12 0.000252571
20 *339:A1 *336:A 0
21 *339:A1 *339:A2 8.43215e-07
22 *339:A1 *339:A4 1.40569e-05
23 *339:A1 *489:A1 4.16485e-05
24 *339:A1 *209:10 2.68727e-05
25 *339:A1 *254:13 1.77455e-05
26 *339:A1 *288:15 0.000179174
27 *339:A1 *297:14 2.90448e-05
28 *498:A1 *498:A3 1.21774e-06
29 *498:A1 *151:101 2.44308e-05
30 *498:A1 *151:112 1.24004e-05
31 *498:A1 *168:22 6.85774e-07
32 *498:A1 *188:18 3.67e-05
33 *499:A1 *499:A2 2.57512e-06
34 *499:A1 *168:22 7.90626e-06
35 *499:A1 *190:14 0
36 *503:A1 *503:A2 6.06596e-05
37 *503:A1 *265:25 6.06596e-05
38 *504:A1 *161:56 1.76665e-06
39 *504:A1 *193:14 6.56185e-06
40 *22:12 *502:A2 1.19839e-05
41 *22:12 *502:A3 7.66675e-07
42 *22:12 *523:A2 2.52965e-06
43 *22:12 *145:24 1.49198e-05
44 *22:12 *149:12 8.88136e-06
45 *22:12 *161:56 2.39679e-06
46 *22:12 *166:20 5.35988e-06
47 *22:12 *173:14 1.32323e-05
48 *22:12 *209:10 1.7644e-05
49 *22:12 *222:12 2.08416e-06
50 *22:12 *228:67 4.47534e-05
51 *22:16 *489:A1 2.4656e-05
52 *22:16 *149:14 2.89018e-05
53 *22:16 *288:15 5.38494e-05
54 *22:41 *504:A2 3.09411e-06
55 *22:41 *505:A2 1.68643e-06
56 *22:41 *505:A3 2.39679e-06
57 *22:41 *523:A2 8.43215e-07
58 *22:41 *161:56 0.000145388
59 *22:41 *162:27 0
60 *22:41 *195:8 8.89101e-05
61 *22:52 *161:46 1.72426e-05
62 *22:52 *161:50 2.96955e-05
63 *22:52 *211:12 1.45805e-05
64 *22:61 *161:44 1.72426e-05
65 *22:61 *161:46 0.000164437
66 *22:61 *190:22 8.06325e-05
67 *22:61 *211:12 4.58393e-06
68 *22:61 *211:14 1.26374e-05
69 *22:80 *455:A3 5.3942e-05
70 *22:80 *459:A3 2.25996e-06
71 *22:80 *147:12 0
72 *22:80 *147:16 1.86987e-06
73 *22:80 *161:26 1.72426e-05
74 *22:80 *161:44 0.000258338
75 *22:80 *190:14 0.000231166
76 *22:80 *190:22 5.66549e-05
77 *22:89 *445:A3 4.64017e-06
78 *22:89 *451:A2 5.41015e-05
79 *22:89 *459:A3 1.61002e-06
80 *22:89 *500:A2 1.62696e-05
81 *22:89 *143:41 2.76824e-06
82 *22:89 *161:26 1.2453e-05
83 *22:89 *187:30 4.16195e-06
84 *22:89 *188:18 7.94836e-05
85 *22:89 *190:14 0.000324083
86 *22:89 *211:14 2.54645e-06
87 *22:93 *500:A2 1.1366e-05
88 *22:93 *151:112 4.48859e-06
89 *22:93 *188:18 5.20899e-05
*RES
1 *320:Z *22:12 33.9286 
2 *22:12 *22:16 7.96429 
3 *22:16 *339:A1 30 
4 *22:16 *502:A1 10 
5 *22:12 *506:A1 5 
6 *22:12 *22:41 14.75 
7 *22:41 *504:A1 5.92857 
8 *22:41 *22:52 7.28572 
9 *22:52 *505:A1 10 
10 *22:52 *22:61 9.75 
11 *22:61 *503:A1 15.75 
12 *22:61 *22:80 25.6429 
13 *22:80 *507:A1 10 
14 *22:80 *22:89 19.9286 
15 *22:89 *22:93 3.71429 
16 *22:93 *499:A1 11.25 
17 *22:93 *498:A1 13.7143 
18 *22:89 *500:A1 10 
*END

*D_NET *23 0.00121989
*CONN
*I *405:A1 I *D NAND2_X1
*I *412:C1 I *D AOI221_X2
*I *417:A I *D OAI21_X1
*I *324:A1 I *D AND2_X1
*I *321:ZN O *D NOR4_X2
*CAP
1 *405:A1 0
2 *412:C1 4.94285e-05
3 *417:A 5.95111e-05
4 *324:A1 1.85751e-05
5 *321:ZN 6.91035e-05
6 *23:40 6.42637e-05
7 *23:16 9.86996e-05
8 *23:12 0.000104552
9 *324:A1 *324:A2 4.71632e-06
10 *324:A1 *407:A 4.7856e-06
11 *324:A1 *412:C2 2.61827e-06
12 *324:A1 *104:16 3.51471e-05
13 *412:C1 *412:C2 4.82801e-05
14 *412:C1 *414:A1 2.16072e-07
15 *412:C1 *25:12 2.39679e-06
16 *412:C1 *26:8 4.32144e-07
17 *412:C1 *115:16 1.27626e-05
18 *417:A *363:B2 5.83413e-05
19 *417:A *407:B2 0
20 *417:A *412:C2 2.85072e-05
21 *417:A *417:B1 2.75346e-06
22 *417:A *25:12 2.71691e-06
23 *417:A *104:16 6.85774e-07
24 *417:A *115:16 3.24066e-05
25 *417:A *250:41 1.95844e-05
26 *23:12 *313:A4 4.52612e-06
27 *23:12 *407:A 0
28 *23:12 *25:12 6.12766e-06
29 *23:12 *78:10 0
30 *23:12 *115:16 2.92206e-05
31 *23:12 *253:13 0.000220167
32 *23:12 *254:23 0.000156232
33 *23:16 *324:A2 9.50425e-06
34 *23:16 *407:A 8.1183e-06
35 *23:16 *104:16 5.01473e-05
36 *23:16 *253:13 4.76429e-07
37 *23:40 *25:12 1.65202e-06
38 *23:40 *115:16 1.32348e-05
*RES
1 *321:ZN *23:12 29.5357 
2 *23:12 *23:16 8.64286 
3 *23:16 *324:A1 12.8571 
4 *23:16 *417:A 19.25 
5 *23:12 *23:40 2.17857 
6 *23:40 *412:C1 11.6786 
7 *23:40 *405:A1 5 
*END

*D_NET *24 0.000921547
*CONN
*I *412:C2 I *D AOI221_X2
*I *323:A3 I *D NOR3_X1
*I *322:ZN O *D OR2_X1
*CAP
1 *412:C2 0.00016937
2 *323:A3 0
3 *322:ZN 6.85942e-05
4 *24:12 0.000237964
5 *412:C2 *323:A2 2.35353e-05
6 *412:C2 *407:A 3.19164e-07
7 *412:C2 *407:B2 2.87683e-05
8 *412:C2 *425:A 0
9 *412:C2 *25:12 3.88103e-05
10 *412:C2 *26:8 1.62864e-05
11 *412:C2 *104:16 4.84077e-06
12 *412:C2 *250:37 5.86754e-06
13 *412:C2 *250:41 3.71052e-05
14 *412:C2 *253:13 6.61473e-05
15 *412:C2 *286:33 8.49944e-06
16 *24:12 *323:A2 2.75346e-06
17 *24:12 *354:A 2.77692e-05
18 *24:12 *355:B1 1.80259e-05
19 *24:12 *355:B2 1.34984e-05
20 *24:12 *220:12 2.67622e-05
21 *24:12 *251:21 4.78324e-06
22 *24:12 *252:9 4.24402e-05
23 *324:A1 *412:C2 2.61827e-06
24 *412:C1 *412:C2 4.82801e-05
25 *417:A *412:C2 2.85072e-05
*RES
1 *322:ZN *24:12 25.1071 
2 *24:12 *323:A3 5 
3 *24:12 *412:C2 39.8214 
*END

*D_NET *25 0.000608033
*CONN
*I *361:A I *D INV_X1
*I *405:A2 I *D NAND2_X1
*I *324:A2 I *D AND2_X1
*I *323:ZN O *D NOR3_X1
*CAP
1 *361:A 2.49962e-05
2 *405:A2 0
3 *324:A2 1.57996e-05
4 *323:ZN 2.10078e-05
5 *25:12 0.000121636
6 *25:8 0.00015184
7 *324:A2 *407:A 4.1236e-05
8 *361:A *362:A 2.39679e-06
9 *361:A *363:B2 6.48216e-07
10 *361:A *243:13 2.54476e-05
11 *361:A *279:13 0
12 *25:8 *243:13 4.09574e-05
13 *25:8 *279:13 0
14 *25:12 *363:B2 9.58197e-05
15 *25:12 *115:16 3.23723e-07
16 *25:12 *261:17 0
17 *324:A1 *324:A2 4.71632e-06
18 *412:C1 *25:12 2.39679e-06
19 *412:C2 *25:12 3.88103e-05
20 *417:A *25:12 2.71691e-06
21 *23:12 *25:12 6.12766e-06
22 *23:16 *324:A2 9.50425e-06
23 *23:40 *25:12 1.65202e-06
*RES
1 *323:ZN *25:8 12.2857 
2 *25:8 *25:12 18.75 
3 *25:12 *324:A2 17.2857 
4 *25:12 *405:A2 5 
5 *25:8 *361:A 12.8571 
*END

*D_NET *26 0.000492824
*CONN
*I *414:A1 I *D NAND2_X1
*I *329:A1 I *D AND2_X1
*I *324:ZN O *D AND2_X1
*CAP
1 *414:A1 3.93961e-05
2 *329:A1 2.89398e-05
3 *324:ZN 3.77981e-05
4 *26:8 0.000106134
5 *329:A1 *30:10 1.72405e-05
6 *329:A1 *30:25 6.23524e-05
7 *329:A1 *31:8 4.43868e-06
8 *329:A1 *31:19 7.28854e-06
9 *329:A1 *137:10 0.000117332
10 *414:A1 *339:A2 1.69606e-05
11 *414:A1 *412:B2 1.03315e-06
12 *414:A1 *110:18 3.00683e-05
13 *414:A1 *115:16 0
14 *26:8 *412:B2 8.43215e-07
15 *26:8 *425:A 6.06412e-06
16 *412:C1 *414:A1 2.16072e-07
17 *412:C1 *26:8 4.32144e-07
18 *412:C2 *26:8 1.62864e-05
*RES
1 *324:ZN *26:8 9.67857 
2 *26:8 *329:A1 21.3571 
3 *26:8 *414:A1 10.6786 
*END

*D_NET *27 0.00105088
*CONN
*I *417:B2 I *D OAI21_X1
*I *328:A1 I *D AND2_X1
*I *360:C1 I *D AOI221_X1
*I *406:C1 I *D AOI211_X1
*I *325:ZN O *D NOR4_X1
*CAP
1 *417:B2 3.14015e-05
2 *328:A1 0
3 *360:C1 3.63785e-05
4 *406:C1 0
5 *325:ZN 4.72434e-05
6 *27:30 5.8022e-05
7 *27:19 7.38824e-05
8 *27:10 5.81269e-05
9 *360:C1 *356:A 1.19839e-05
10 *360:C1 *360:A 6.48216e-07
11 *360:C1 *360:C2 8.43215e-07
12 *360:C1 *406:A 2.39679e-06
13 *360:C1 *246:21 2.30003e-05
14 *360:C1 *247:29 1.48066e-05
15 *360:C1 *270:13 0
16 *417:B2 *323:A2 5.6063e-06
17 *417:B2 *407:B2 0.000101834
18 *417:B2 *279:13 0.000143777
19 *27:10 *325:A1 2.83315e-05
20 *27:10 *325:A2 2.39679e-06
21 *27:10 *325:A3 1.09242e-05
22 *27:10 *327:A1 7.72792e-06
23 *27:10 *406:C2 3.05388e-05
24 *27:10 *28:10 0
25 *27:10 *246:21 5.57182e-06
26 *27:10 *248:29 1.75354e-05
27 *27:10 *279:11 1.19108e-06
28 *27:19 *407:B2 1.72405e-05
29 *27:19 *246:21 3.98918e-06
30 *27:19 *248:21 1.2203e-05
31 *27:19 *248:29 2.94435e-05
32 *27:30 *407:B2 0.00014032
33 *27:30 *248:21 2.94455e-05
34 *27:30 *279:11 2.38217e-06
35 *27:30 *279:13 0.000101692
*RES
1 *325:ZN *27:10 16.7143 
2 *27:10 *406:C1 10 
3 *27:10 *27:19 2.28572 
4 *27:19 *360:C1 14.75 
5 *27:19 *27:30 7.71429 
6 *27:30 *328:A1 10 
7 *27:30 *417:B2 17.7143 
*END

*D_NET *28 0.000314899
*CONN
*I *406:C2 I *D AOI211_X1
*I *327:A3 I *D NOR3_X1
*I *326:ZN O *D OR2_X1
*CAP
1 *406:C2 3.35527e-05
2 *327:A3 0
3 *326:ZN 4.489e-05
4 *28:10 7.84427e-05
5 *406:C2 *325:A3 1.20751e-06
6 *406:C2 *327:A1 9.55059e-06
7 *406:C2 *327:A2 3.19164e-07
8 *406:C2 *248:29 7.19036e-06
9 *406:C2 *279:11 1.46241e-05
10 *28:10 *325:A3 0
11 *28:10 *327:A1 6.92212e-05
12 *28:10 *242:25 1.45251e-05
13 *28:10 *279:11 1.08366e-05
14 *27:10 *406:C2 3.05388e-05
15 *27:10 *28:10 0
*RES
1 *326:ZN *28:10 16.8929 
2 *28:10 *327:A3 10 
3 *28:10 *406:C2 15.1429 
*END

*D_NET *29 0.000570959
*CONN
*I *328:A2 I *D AND2_X1
*I *327:ZN O *D NOR3_X1
*CAP
1 *328:A2 0.000147961
2 *327:ZN 0.000147961
3 *328:A2 *327:A2 9.64883e-06
4 *328:A2 *247:25 0
5 *328:A2 *253:13 9.27512e-05
6 *328:A2 *273:9 8.74131e-05
7 *328:A2 *274:13 8.14743e-06
8 *328:A2 *282:21 5.31885e-05
9 *328:A2 *290:25 7.19036e-06
10 *328:A2 *290:29 1.66988e-05
*RES
1 *327:ZN *328:A2 42.6429 
*END

*D_NET *30 0.0010427
*CONN
*I *425:B1 I *D AOI21_X1
*I *414:A2 I *D NAND2_X1
*I *329:A2 I *D AND2_X1
*I *328:ZN O *D AND2_X1
*CAP
1 *425:B1 7.07302e-05
2 *414:A2 0
3 *329:A2 5.37304e-06
4 *328:ZN 9.22906e-05
5 *30:25 0.000113171
6 *30:10 0.000140105
7 *329:A2 *278:21 3.09143e-06
8 *329:A2 *286:33 7.19036e-06
9 *425:B1 *339:A2 0
10 *425:B1 *425:A 5.35076e-05
11 *425:B1 *425:B2 9.31531e-06
12 *425:B1 *110:18 2.39679e-06
13 *425:B1 *112:12 3.69158e-05
14 *425:B1 *286:33 1.91498e-06
15 *30:10 *137:10 8.56923e-06
16 *30:10 *164:8 0
17 *30:10 *278:21 0.00013988
18 *30:10 *282:21 0.000151251
19 *30:10 *286:33 9.57492e-07
20 *30:25 *412:B2 7.19036e-06
21 *30:25 *425:A 4.43147e-05
22 *30:25 *31:8 4.24381e-05
23 *30:25 *110:18 3.25083e-05
24 *30:25 *164:8 0
25 *329:A1 *30:10 1.72405e-05
26 *329:A1 *30:25 6.23524e-05
*RES
1 *328:ZN *30:10 26.5357 
2 *30:10 *329:A2 10.75 
3 *30:10 *30:25 12.8929 
4 *30:25 *414:A2 5 
5 *30:25 *425:B1 16.1786 
*END

*D_NET *31 0.00114822
*CONN
*I *378:B2 I *D AOI21_X1
*I *339:A2 I *D NAND4_X1
*I *412:B2 I *D AOI221_X2
*I *329:ZN O *D AND2_X1
*CAP
1 *378:B2 5.55165e-05
2 *339:A2 0.000219693
3 *412:B2 9.06637e-06
4 *329:ZN 2.18842e-05
5 *31:19 0.000304471
6 *31:8 6.02117e-05
7 *339:A2 *333:A 0
8 *339:A2 *339:A3 0
9 *339:A2 *339:A4 8.43215e-07
10 *339:A2 *418:B2 0.000135869
11 *339:A2 *425:A 2.27624e-05
12 *339:A2 *425:B2 1.2452e-05
13 *339:A2 *111:18 7.72792e-06
14 *339:A2 *115:16 1.91498e-06
15 *339:A2 *254:13 0
16 *339:A2 *258:27 3.83909e-06
17 *339:A2 *286:33 0
18 *339:A2 *297:14 8.64288e-07
19 *378:B2 *378:B1 1.21774e-06
20 *378:B2 *111:18 0.000129699
21 *378:B2 *137:10 2.72847e-05
22 *378:B2 *164:8 5.20238e-07
23 *378:B2 *260:25 5.52692e-06
24 *378:B2 *265:37 1.59582e-06
25 *412:B2 *425:A 1.68643e-06
26 *412:B2 *110:18 7.72537e-06
27 *31:8 *164:8 2.66691e-06
28 *31:19 *137:10 5.10087e-06
29 *31:19 *164:8 1.74328e-06
30 *316:A *339:A2 2.52975e-05
31 *329:A1 *31:8 4.43868e-06
32 *329:A1 *31:19 7.28854e-06
33 *339:A1 *339:A2 8.43215e-07
34 *414:A1 *339:A2 1.69606e-05
35 *414:A1 *412:B2 1.03315e-06
36 *425:B1 *339:A2 0
37 *26:8 *412:B2 8.43215e-07
38 *30:25 *412:B2 7.19036e-06
39 *30:25 *31:8 4.24381e-05
*RES
1 *329:ZN *31:8 12.9643 
2 *31:8 *412:B2 11.25 
3 *31:8 *31:19 2.96429 
4 *31:19 *339:A2 39.25 
5 *31:19 *378:B2 18.9643 
*END

*D_NET *32 0.00094115
*CONN
*I *416:B1 I *D AOI21_X1
*I *332:A1 I *D NAND2_X1
*I *409:A I *D OAI21_X1
*I *330:ZN O *D NOR4_X1
*CAP
1 *416:B1 6.51689e-05
2 *332:A1 6.07073e-06
3 *409:A 7.1474e-06
4 *330:ZN 0.000107214
5 *32:21 0.000164379
6 *32:10 0.000207501
7 *332:A1 *282:21 1.32348e-05
8 *332:A1 *290:25 1.32348e-05
9 *409:A *376:B2 1.59582e-06
10 *409:A *409:B1 2.75346e-06
11 *409:A *250:27 1.32348e-05
12 *416:B1 *416:A 1.25215e-05
13 *416:B1 *416:B2 2.54802e-05
14 *416:B1 *418:B1 2.38892e-05
15 *416:B1 *219:8 6.07016e-06
16 *416:B1 *286:33 6.82202e-07
17 *32:10 *376:B2 0.000140901
18 *32:10 *411:A 0
19 *32:10 *411:B 6.50581e-06
20 *32:10 *219:8 1.61249e-06
21 *32:10 *235:27 1.52083e-06
22 *32:10 *250:27 9.57492e-07
23 *32:21 *411:A 3.30629e-05
24 *32:21 *411:B 7.17938e-06
25 *32:21 *219:8 1.37205e-05
26 *32:21 *250:27 6.55107e-05
*RES
1 *330:ZN *32:10 25.0357 
2 *32:10 *409:A 11.25 
3 *32:10 *32:21 11.1071 
4 *32:21 *332:A1 11.25 
5 *32:21 *416:B1 17.6071 
*END

*D_NET *33 0.00102332
*CONN
*I *440:C1 I *D AOI221_X1
*I *415:A1 I *D NAND2_X1
*I *332:A2 I *D NAND2_X1
*I *374:A I *D INV_X1
*I *331:ZN O *D NOR4_X1
*CAP
1 *440:C1 0
2 *415:A1 2.88566e-05
3 *332:A2 2.58421e-05
4 *374:A 6.68168e-05
5 *331:ZN 3.41606e-05
6 *33:25 0.000175837
7 *33:14 0.000187955
8 *33:12 3.41606e-05
9 *332:A2 *274:13 4.89299e-05
10 *332:A2 *290:25 4.89299e-05
11 *374:A *331:A1 4.11048e-05
12 *374:A *331:A3 5.48953e-05
13 *374:A *375:A 1.66988e-05
14 *374:A *375:B2 1.04049e-05
15 *374:A *169:14 0
16 *374:A *219:8 0
17 *415:A1 *169:14 0
18 *415:A1 *235:21 1.56073e-06
19 *415:A1 *282:17 7.18184e-06
20 *33:12 *331:A1 1.39047e-05
21 *33:12 *375:A 1.28391e-05
22 *33:12 *375:B2 9.73363e-05
23 *33:12 *440:C2 4.30918e-06
24 *33:25 *375:A 5.41015e-05
25 *33:25 *411:C1 2.36265e-05
26 *33:25 *169:14 0
27 *33:25 *219:8 0
28 *33:25 *235:21 1.98533e-05
29 *33:25 *239:37 4.92863e-06
30 *33:25 *282:17 9.09058e-06
*RES
1 *331:ZN *33:12 21.0714 
2 *33:12 *33:14 5 
3 *33:14 *374:A 18.3929 
4 *33:14 *33:25 13.8214 
5 *33:25 *332:A2 14.75 
6 *33:25 *415:A1 12.9643 
7 *33:12 *440:C1 5 
*END

*D_NET *34 0.000983863
*CONN
*I *425:B2 I *D AOI21_X1
*I *333:A I *D INV_X1
*I *411:C2 I *D OAI211_X1
*I *332:ZN O *D NAND2_X1
*CAP
1 *425:B2 7.19534e-05
2 *333:A 2.84407e-05
3 *411:C2 4.07887e-05
4 *332:ZN 0
5 *34:19 0.000123122
6 *34:6 6.35167e-05
7 *333:A *286:33 7.56361e-06
8 *411:C2 *219:8 0.000128655
9 *411:C2 *235:21 0.000128655
10 *411:C2 *246:13 1.67775e-05
11 *411:C2 *247:17 1.73151e-05
12 *425:B2 *416:A 4.06149e-05
13 *425:B2 *112:12 7.72537e-06
14 *425:B2 *219:8 2.54476e-05
15 *425:B2 *235:21 2.96955e-05
16 *425:B2 *286:33 0
17 *34:19 *219:8 0.000113789
18 *34:19 *235:21 0.000118035
19 *339:A2 *333:A 0
20 *339:A2 *425:B2 1.2452e-05
21 *425:B1 *425:B2 9.31531e-06
*RES
1 *332:ZN *34:6 10 
2 *34:6 *411:C2 18.7857 
3 *34:6 *34:19 6.35715 
4 *34:19 *333:A 13.25 
5 *34:19 *425:B2 20.7143 
*END

*D_NET *35 0.000190905
*CONN
*I *339:A3 I *D NAND4_X1
*I *333:ZN O *D INV_X1
*CAP
1 *339:A3 6.00081e-05
2 *333:ZN 6.00081e-05
3 *339:A3 *339:A4 6.48216e-07
4 *339:A3 *234:19 5.39422e-05
5 *339:A3 *286:33 7.03073e-06
6 *339:A3 *296:9 9.26807e-06
7 *339:A2 *339:A3 0
*RES
1 *333:ZN *339:A3 27.2143 
*END

*D_NET *36 0.0011091
*CONN
*I *439:B2 I *D OAI21_X1
*I *338:A3 I *D NOR4_X1
*I *415:A2 I *D NAND2_X1
*I *334:ZN O *D OR4_X1
*CAP
1 *439:B2 0
2 *338:A3 4.13135e-05
3 *415:A2 8.02753e-05
4 *334:ZN 3.3662e-05
5 *36:14 0.000264325
6 *36:8 0.000176398
7 *338:A3 *335:A 8.98274e-07
8 *338:A3 *338:A1 1.21774e-06
9 *338:A3 *39:8 2.39679e-06
10 *338:A3 *173:14 5.48932e-05
11 *338:A3 *228:67 8.13181e-06
12 *338:A3 *278:21 2.2287e-05
13 *338:A3 *286:33 8.90513e-06
14 *415:A2 *278:21 3.00419e-05
15 *415:A2 *290:25 0.000135802
16 *36:8 *375:B1 1.89851e-06
17 *36:8 *204:18 3.43734e-05
18 *36:8 *288:36 2.35379e-05
19 *36:14 *375:B1 1.28407e-05
20 *36:14 *440:C2 5.52959e-06
21 *36:14 *173:14 7.40116e-05
22 *36:14 *204:18 6.59736e-06
23 *36:14 *209:10 4.01613e-05
24 *36:14 *228:67 4.32843e-05
25 *36:14 *290:23 6.32202e-06
*RES
1 *334:ZN *36:8 9.85714 
2 *36:8 *36:14 24.1072 
3 *36:14 *415:A2 22.75 
4 *36:14 *338:A3 16.2143 
5 *36:8 *439:B2 5 
*END

*D_NET *37 0.000363153
*CONN
*I *337:A1 I *D NAND2_X1
*I *372:A I *D OAI21_X1
*I *335:ZN O *D INV_X1
*CAP
1 *337:A1 0
2 *372:A 2.98465e-05
3 *335:ZN 3.5154e-05
4 *37:10 6.50005e-05
5 *372:A *337:A2 3.99408e-05
6 *372:A *38:12 5.38079e-05
7 *372:A *246:11 0.000101066
8 *372:A *277:49 6.81033e-07
9 *37:10 *335:A 6.38328e-07
10 *37:10 *337:A2 7.72792e-06
11 *37:10 *338:A1 1.33399e-06
12 *37:10 *371:A 1.0682e-05
13 *37:10 *39:8 9.49497e-06
14 *37:10 *244:26 7.77959e-06
*RES
1 *335:ZN *37:10 10.1071 
2 *37:10 *372:A 20.6786 
3 *37:10 *337:A1 5 
*END

*D_NET *38 0.000373019
*CONN
*I *438:B1 I *D AOI21_X1
*I *337:A2 I *D NAND2_X1
*I *336:ZN O *D INV_X1
*CAP
1 *438:B1 5.17015e-06
2 *337:A2 2.26809e-05
3 *336:ZN 3.65955e-05
4 *38:12 6.44466e-05
5 *337:A2 *335:A 6.56543e-05
6 *337:A2 *371:A 8.26038e-06
7 *337:A2 *246:11 8.56923e-06
8 *438:B1 *335:A 7.19036e-06
9 *438:B1 *338:A1 7.19036e-06
10 *38:12 *335:A 1.19543e-05
11 *38:12 *336:A 1.04006e-05
12 *38:12 *372:B2 6.56007e-06
13 *38:12 *373:C2 1.62946e-05
14 *38:12 *277:49 5.75004e-07
15 *372:A *337:A2 3.99408e-05
16 *372:A *38:12 5.38079e-05
17 *37:10 *337:A2 7.72792e-06
*RES
1 *336:ZN *38:12 15.9643 
2 *38:12 *337:A2 14.3929 
3 *38:12 *438:B1 10.75 
*END

*D_NET *39 0.000711694
*CONN
*I *338:A4 I *D NOR4_X1
*I *410:C2 I *D AOI211_X1
*I *337:ZN O *D NAND2_X1
*CAP
1 *338:A4 0
2 *410:C2 7.43959e-05
3 *337:ZN 3.45884e-05
4 *39:8 0.000108984
5 *410:C2 *439:B1 4.83646e-05
6 *410:C2 *277:49 0.000138924
7 *410:C2 *288:21 0.000276866
8 *39:8 *335:A 8.43215e-07
9 *39:8 *338:A1 9.41943e-06
10 *39:8 *371:A 3.23723e-07
11 *39:8 *439:B1 5.99828e-06
12 *39:8 *244:26 1.09428e-06
13 *338:A3 *39:8 2.39679e-06
14 *37:10 *39:8 9.49497e-06
*RES
1 *337:ZN *39:8 9.17857 
2 *39:8 *410:C2 30.1786 
3 *39:8 *338:A4 5 
*END

*D_NET *40 0.00036078
*CONN
*I *339:A4 I *D NAND4_X1
*I *338:ZN O *D NOR4_X1
*CAP
1 *339:A4 9.18969e-05
2 *338:ZN 9.18969e-05
3 *339:A4 *173:14 8.0719e-05
4 *339:A4 *209:10 8.0719e-05
5 *339:A4 *286:33 0
6 *339:A1 *339:A4 1.40569e-05
7 *339:A2 *339:A4 8.43215e-07
8 *339:A3 *339:A4 6.48216e-07
*RES
1 *338:ZN *339:A4 32.5714 
*END

*D_NET *41 0.000659141
*CONN
*I *341:A2 I *D AND2_X1
*I *396:A I *D OAI211_X1
*I *340:ZN O *D NOR2_X1
*CAP
1 *341:A2 5.82246e-06
2 *396:A 0.000128547
3 *340:ZN 5.64497e-05
4 *41:10 0.000190819
5 *341:A2 *287:29 0
6 *341:A2 *290:33 2.75346e-06
7 *341:A2 *290:39 7.72792e-06
8 *396:A *299:A1 3.7299e-06
9 *396:A *396:B 2.75346e-06
10 *396:A *396:C1 2.75346e-06
11 *396:A *421:A 3.23723e-07
12 *396:A *94:14 0
13 *396:A *287:29 1.45042e-05
14 *41:10 *287:29 3.26764e-05
15 *41:10 *290:39 0
16 *41:10 *291:23 2.13573e-06
17 *41:10 *291:25 2.39679e-06
18 *421:C1 *396:A 0.000103733
19 *421:C1 *41:10 3.43763e-05
20 *1:25 *396:A 6.76399e-05
*RES
1 *340:ZN *41:10 17.75 
2 *41:10 *396:A 28.6429 
3 *41:10 *341:A2 10.75 
*END

*D_NET *42 0.000157308
*CONN
*I *346:A I *D OAI21_X1
*I *342:ZN O *D INV_X1
*CAP
1 *346:A 1.85421e-05
2 *342:ZN 1.85421e-05
3 *346:A *343:A1 2.39679e-06
4 *346:A *351:B 2.52965e-06
5 *346:A *421:A 4.21902e-05
6 *346:A *43:8 1.72405e-05
7 *346:A *287:29 5.54348e-05
8 *346:A *290:39 4.32144e-07
*RES
1 *342:ZN *346:A 23.7143 
*END

*D_NET *43 0.000981368
*CONN
*I *346:B1 I *D OAI21_X1
*I *421:A I *D AOI211_X1
*I *343:ZN O *D OR4_X1
*CAP
1 *346:B1 0
2 *421:A 0.000119662
3 *343:ZN 2.42971e-05
4 *43:8 0.000143959
5 *421:A *299:A1 2.51151e-05
6 *421:A *344:A 7.72537e-06
7 *421:A *393:B1 4.62745e-06
8 *421:A *396:C2 2.75346e-06
9 *421:A *421:B 2.75346e-06
10 *421:A *90:12 9.92221e-06
11 *421:A *119:18 2.52965e-06
12 *421:A *274:25 1.11792e-06
13 *421:A *284:9 2.99163e-05
14 *421:A *285:9 0.000260189
15 *421:A *286:50 5.48932e-05
16 *421:A *287:29 7.15405e-05
17 *43:8 *343:A4 2.87401e-05
18 *43:8 *285:9 8.71256e-05
19 *43:8 *287:29 1.49936e-05
20 *346:A *421:A 4.21902e-05
21 *346:A *43:8 1.72405e-05
22 *396:A *421:A 3.23723e-07
23 *2:14 *421:A 2.97531e-05
*RES
1 *343:ZN *43:8 15 
2 *43:8 *421:A 34 
3 *43:8 *346:B1 10 
*END

*D_NET *44 0.000328674
*CONN
*I *345:B1 I *D AOI21_X1
*I *344:ZN O *D INV_X1
*CAP
1 *345:B1 4.37888e-05
2 *344:ZN 4.37888e-05
3 *345:B1 *90:12 1.75197e-05
4 *345:B1 *222:8 0.000107955
5 *345:B1 *259:17 0.000106626
6 *345:B1 *274:25 8.99598e-06
*RES
1 *344:ZN *345:B1 29.4286 
*END

*D_NET *45 0.000630493
*CONN
*I *346:B2 I *D OAI21_X1
*I *345:ZN O *D AOI21_X1
*CAP
1 *346:B2 9.61358e-05
2 *345:ZN 9.61358e-05
3 *346:B2 *298:A2 0
4 *346:B2 *342:A 6.65423e-06
5 *346:B2 *343:A1 1.28122e-06
6 *346:B2 *351:B 2.39679e-06
7 *346:B2 *393:B1 3.81615e-06
8 *346:B2 *259:17 0.000250896
9 *346:B2 *285:9 0
10 *1:12 *346:B2 0.000173176
*RES
1 *345:ZN *346:B2 37.8929 
*END

*D_NET *46 0.000240727
*CONN
*I *351:B I *D AOI211_X1
*I *346:ZN O *D OAI21_X1
*CAP
1 *351:B 9.06013e-05
2 *346:ZN 9.06013e-05
3 *351:B *351:A 2.83315e-05
4 *351:B *351:C2 2.16072e-07
5 *351:B *290:33 1.09661e-05
6 *351:B *290:39 1.50843e-05
7 *346:A *351:B 2.52965e-06
8 *346:B2 *351:B 2.39679e-06
*RES
1 *346:ZN *351:B 20.25 
*END

*D_NET *47 0.000532245
*CONN
*I *350:A I *D OAI21_X1
*I *347:ZN O *D AOI21_X1
*CAP
1 *350:A 6.14061e-05
2 *347:ZN 6.14061e-05
3 *350:A *303:A1 1.25189e-05
4 *350:A *394:A 1.45069e-05
5 *350:A *243:9 6.92933e-05
6 *350:A *245:9 0.0002464
7 *350:A *281:13 2.39679e-06
8 *350:A *283:32 5.17976e-05
9 *347:B1 *350:A 1.25189e-05
*RES
1 *347:ZN *350:A 34.3929 
*END

*D_NET *48 5.81703e-05
*CONN
*I *349:B1 I *D AOI21_X1
*I *348:ZN O *D INV_X1
*CAP
1 *349:B1 1.59991e-05
2 *348:ZN 1.59991e-05
3 *349:B1 *240:9 8.93174e-06
4 *349:B1 *243:9 0
5 *349:B1 *279:13 1.72405e-05
*RES
1 *348:ZN *349:B1 22.2857 
*END

*D_NET *49 9.56605e-05
*CONN
*I *350:B1 I *D OAI21_X1
*I *349:ZN O *D AOI21_X1
*CAP
1 *350:B1 4.72214e-05
2 *349:ZN 4.72214e-05
3 *350:B1 *289:57 0
4 *306:A3 *350:B1 0
5 *350:B2 *350:B1 1.21774e-06
*RES
1 *349:ZN *350:B1 14.8571 
*END

*D_NET *50 0.000559946
*CONN
*I *351:C2 I *D AOI211_X1
*I *350:ZN O *D OAI21_X1
*CAP
1 *351:C2 7.61077e-05
2 *350:ZN 7.61077e-05
3 *351:C2 *243:9 0.000284833
4 *351:C2 *245:9 9.24443e-05
5 *307:A1 *351:C2 0
6 *351:B *351:C2 2.16072e-07
7 *351:C1 *351:C2 3.02372e-05
*RES
1 *350:ZN *351:C2 35.9286 
*END

*D_NET *51 0.000709067
*CONN
*I *391:A I *D OAI221_X1
*I *434:A I *D OAI21_X1
*I *351:ZN O *D AOI211_X1
*CAP
1 *391:A 5.63085e-06
2 *434:A 2.63952e-05
3 *351:ZN 0.00027405
4 *51:10 0.000306076
5 *391:A *391:C2 1.32348e-05
6 *434:A *434:B1 1.32323e-05
7 *434:A *78:10 1.14365e-05
8 *434:A *290:29 0
9 *51:10 *275:29 8.56027e-06
10 *51:10 *290:29 0
11 *51:10 *290:33 1.74579e-05
12 *307:A1 *51:10 0
13 *391:B2 *391:A 8.43215e-07
14 *391:B2 *434:A 2.39679e-06
15 *9:10 *51:10 0
16 *9:16 *51:10 0
17 *11:6 *51:10 2.97531e-05
*RES
1 *351:ZN *51:10 40.1429 
2 *51:10 *434:A 13.5357 
3 *51:10 *391:A 11.25 
*END

*D_NET *52 0.000222571
*CONN
*I *443:A I *D OAI221_X1
*I *364:A I *D OAI21_X1
*I *352:ZN O *D INV_X1
*CAP
1 *443:A 0
2 *364:A 1.42817e-05
3 *352:ZN 4.72357e-05
4 *52:16 6.15174e-05
5 *364:A *443:C1 4.21902e-05
6 *364:A *137:10 1.72405e-05
7 *52:16 *443:C1 1.78827e-05
8 *52:16 *256:27 0
9 *17:14 *52:16 2.22229e-05
*RES
1 *352:ZN *52:16 16.1786 
2 *52:16 *364:A 12.2857 
3 *52:16 *443:A 10 
*END

*D_NET *53 0.000327196
*CONN
*I *363:B1 I *D AOI21_X1
*I *353:ZN O *D INV_X1
*CAP
1 *363:B1 3.42455e-05
2 *353:ZN 3.42455e-05
3 *363:B1 *321:A3 0.000107416
4 *363:B1 *78:10 0
5 *363:B1 *253:13 0.000131824
6 *363:B1 *290:29 1.94663e-05
*RES
1 *353:ZN *363:B1 28.3929 
*END

*D_NET *54 0.00021198
*CONN
*I *355:B1 I *D AOI21_X1
*I *354:ZN O *D INV_X1
*CAP
1 *355:B1 7.17054e-05
2 *354:ZN 7.17054e-05
3 *355:B1 *354:A 3.40142e-05
4 *355:B1 *355:B2 7.4863e-06
5 *355:B1 *362:A 1.76665e-06
6 *355:B1 *252:13 7.16188e-07
7 *355:B1 *286:33 6.56007e-06
8 *24:12 *355:B1 1.80259e-05
*RES
1 *354:ZN *355:B1 19.8929 
*END

*D_NET *55 0.000229215
*CONN
*I *362:A I *D OAI21_X1
*I *355:ZN O *D AOI21_X1
*CAP
1 *362:A 9.45746e-05
2 *355:ZN 9.45746e-05
3 *362:A *355:A 6.56185e-06
4 *362:A *355:B2 0
5 *362:A *362:B1 7.19036e-06
6 *362:A *252:13 2.21505e-05
7 *362:A *261:17 0
8 *355:B1 *362:A 1.76665e-06
9 *361:A *362:A 2.39679e-06
*RES
1 *355:ZN *362:A 20.8929 
*END

*D_NET *56 0.000170705
*CONN
*I *360:B1 I *D AOI221_X1
*I *356:ZN O *D INV_X1
*CAP
1 *360:B1 1.70006e-05
2 *356:ZN 1.70006e-05
3 *360:B1 *360:C2 1.14339e-05
4 *360:B1 *362:B1 4.37715e-05
5 *360:B1 *243:13 7.95929e-05
6 *360:B1 *245:13 1.90574e-06
*RES
1 *356:ZN *360:B1 24.3214 
*END

*D_NET *57 0.000193758
*CONN
*I *359:A I *D OAI21_X1
*I *357:ZN O *D INV_X1
*CAP
1 *359:A 3.77652e-05
2 *357:ZN 3.77652e-05
3 *359:A *357:A 1.55645e-05
4 *359:A *359:B1 6.78899e-05
5 *359:A *360:C2 6.99525e-06
6 *359:A *220:12 2.03675e-05
7 *359:A *243:17 7.41091e-06
*RES
1 *357:ZN *359:A 27.0357 
*END

*D_NET *58 9.37472e-05
*CONN
*I *359:B2 I *D OAI21_X1
*I *358:ZN O *D INV_X1
*CAP
1 *359:B2 4.52269e-05
2 *358:ZN 4.52269e-05
3 *359:B2 *325:A4 2.23415e-06
4 *359:B2 *326:A2 2.16072e-07
5 *359:B2 *359:B1 8.43215e-07
6 *359:B2 *220:16 0
7 *359:B2 *242:23 0
*RES
1 *358:ZN *359:B2 14.8929 
*END

*D_NET *59 0.000243618
*CONN
*I *360:C2 I *D AOI221_X1
*I *359:ZN O *D OAI21_X1
*CAP
1 *360:C2 4.43162e-05
2 *359:ZN 4.43162e-05
3 *360:C2 *325:A4 0
4 *360:C2 *360:A 2.39679e-06
5 *360:C2 *220:12 6.03486e-06
6 *360:C2 *243:13 1.86793e-05
7 *360:C2 *243:17 3.9703e-07
8 *360:C2 *245:13 0.000108205
9 *360:C2 *270:13 0
10 *359:A *360:C2 6.99525e-06
11 *360:B1 *360:C2 1.14339e-05
12 *360:C1 *360:C2 8.43215e-07
*RES
1 *359:ZN *360:C2 28.2857 
*END

*D_NET *60 0.00053671
*CONN
*I *362:B1 I *D OAI21_X1
*I *360:ZN O *D AOI221_X1
*CAP
1 *362:B1 0.00010483
2 *360:ZN 0.00010483
3 *362:B1 *355:B2 3.23723e-07
4 *362:B1 *363:B2 2.39679e-06
5 *362:B1 *61:10 3.00282e-05
6 *362:B1 *243:13 0.000107144
7 *362:B1 *245:13 0.000136196
8 *360:B1 *362:B1 4.37715e-05
9 *362:A *362:B1 7.19036e-06
*RES
1 *360:ZN *362:B1 40 
*END

*D_NET *61 0.000286729
*CONN
*I *417:B1 I *D OAI21_X1
*I *362:B2 I *D OAI21_X1
*I *361:ZN O *D INV_X1
*CAP
1 *417:B1 3.50103e-05
2 *362:B2 0
3 *361:ZN 1.78381e-05
4 *61:10 5.28485e-05
5 *417:B1 *355:B2 1.21774e-06
6 *417:B1 *363:B2 3.37817e-05
7 *417:B1 *250:41 3.92836e-05
8 *61:10 *243:13 6.58492e-05
9 *61:10 *245:13 8.1183e-06
10 *362:B1 *61:10 3.00282e-05
11 *417:A *417:B1 2.75346e-06
*RES
1 *361:ZN *61:10 18.6429 
2 *61:10 *362:B2 5 
3 *61:10 *417:B1 10.9286 
*END

*D_NET *62 0.000752133
*CONN
*I *363:B2 I *D AOI21_X1
*I *362:ZN O *D OAI21_X1
*CAP
1 *363:B2 0.000107714
2 *362:ZN 0.000107714
3 *363:B2 *115:16 6.78878e-05
4 *363:B2 *253:13 0.000220415
5 *363:B2 *290:29 5.74149e-05
6 *361:A *363:B2 6.48216e-07
7 *362:B1 *363:B2 2.39679e-06
8 *417:A *363:B2 5.83413e-05
9 *417:B1 *363:B2 3.37817e-05
10 *25:12 *363:B2 9.58197e-05
*RES
1 *362:ZN *363:B2 42.0357 
*END

*D_NET *63 0.000519467
*CONN
*I *443:C1 I *D OAI221_X1
*I *364:B2 I *D OAI21_X1
*I *363:ZN O *D AOI21_X1
*CAP
1 *443:C1 4.24284e-05
2 *364:B2 0
3 *363:ZN 5.28095e-05
4 *63:6 9.52378e-05
5 *443:C1 *378:A 1.72426e-05
6 *443:C1 *111:18 9.64383e-05
7 *443:C1 *137:10 7.35912e-06
8 *443:C1 *138:12 1.11168e-06
9 *443:C1 *222:12 5.33113e-06
10 *443:C1 *256:23 1.68643e-06
11 *443:C1 *256:27 8.43215e-07
12 *443:C1 *257:21 7.72537e-06
13 *63:6 *321:A2 2.50346e-06
14 *63:6 *222:12 9.31661e-05
15 *63:6 *254:25 2.39679e-06
16 *63:6 *256:27 2.5389e-05
17 *364:A *443:C1 4.21902e-05
18 *17:14 *443:C1 7.72537e-06
19 *52:16 *443:C1 1.78827e-05
*RES
1 *363:ZN *63:6 13.75 
2 *63:6 *364:B2 5 
3 *63:6 *443:C1 22.8571 
*END

*D_NET *64 0.000132539
*CONN
*I *378:A I *D AOI21_X1
*I *364:ZN O *D OAI21_X1
*CAP
1 *378:A 1.90016e-05
2 *364:ZN 1.90016e-05
3 *378:A *111:18 9.90355e-06
4 *378:A *137:10 6.73899e-05
5 *443:C1 *378:A 1.72426e-05
*RES
1 *364:ZN *378:A 23.6429 
*END

*D_NET *65 0.000128359
*CONN
*I *377:A I *D OAI21_X1
*I *365:ZN O *D INV_X1
*CAP
1 *377:A 5.75352e-05
2 *365:ZN 5.75352e-05
3 *377:A *377:B1 2.75346e-06
4 *377:A *442:A 2.70833e-06
5 *377:A *442:B1 0
6 *377:A *442:B2 2.75346e-06
7 *377:A *137:10 3.09411e-06
8 *377:A *239:43 1.97916e-06
9 *377:A *263:45 0
*RES
1 *365:ZN *377:A 16.5714 
*END

*D_NET *66 0.000112978
*CONN
*I *376:B1 I *D AOI21_X1
*I *366:ZN O *D INV_X1
*CAP
1 *376:B1 3.03954e-05
2 *366:ZN 3.03954e-05
3 *376:B1 *366:A 7.19473e-06
4 *376:B1 *376:A 2.39679e-06
5 *376:B1 *376:B2 2.94435e-05
6 *376:B1 *442:B2 4.32144e-07
7 *376:B1 *242:23 2.43548e-06
8 *376:B1 *263:45 1.02845e-05
*RES
1 *366:ZN *376:B1 23.7857 
*END

*D_NET *67 0.000289955
*CONN
*I *440:B1 I *D AOI221_X1
*I *368:B1 I *D AOI21_X1
*I *367:ZN O *D INV_X1
*CAP
1 *440:B1 0
2 *368:B1 3.34367e-05
3 *367:ZN 4.04416e-05
4 *67:8 7.38782e-05
5 *368:B1 *368:B2 4.5563e-05
6 *368:B1 *375:A 6.56185e-06
7 *368:B1 *235:38 2.95343e-05
8 *368:B1 *296:13 2.39679e-06
9 *368:B1 *296:15 7.19036e-06
10 *67:8 *331:A1 4.79358e-06
11 *67:8 *375:B1 0
12 *67:8 *440:C2 8.06191e-06
13 *67:8 *235:38 2.39679e-06
14 *67:8 *296:13 3.57002e-05
*RES
1 *367:ZN *67:8 10.3571 
2 *67:8 *368:B1 10.6786 
3 *67:8 *440:B1 5 
*END

*D_NET *68 0.000390078
*CONN
*I *375:A I *D OAI21_X1
*I *368:ZN O *D AOI21_X1
*CAP
1 *375:A 8.1133e-05
2 *368:ZN 8.1133e-05
3 *375:A *375:B1 7.19036e-06
4 *375:A *375:B2 2.08098e-06
5 *375:A *376:B2 1.43238e-06
6 *375:A *409:B1 7.19036e-06
7 *375:A *411:C1 1.52083e-06
8 *375:A *440:C2 7.72792e-06
9 *375:A *441:B2 6.534e-05
10 *375:A *169:14 1.60377e-06
11 *375:A *235:38 4.35246e-05
12 *375:A *263:45 0
13 *368:B1 *375:A 6.56185e-06
14 *374:A *375:A 1.66988e-05
15 *33:12 *375:A 1.28391e-05
16 *33:25 *375:A 5.41015e-05
*RES
1 *368:ZN *375:A 32.9286 
*END

*D_NET *69 0.000476609
*CONN
*I *437:B1 I *D AOI21_X1
*I *373:B1 I *D AOI221_X1
*I *369:ZN O *D INV_X1
*CAP
1 *437:B1 3.34889e-05
2 *373:B1 9.7932e-06
3 *369:ZN 4.80214e-05
4 *69:12 9.13035e-05
5 *373:B1 *373:A 1.19839e-05
6 *373:B1 *437:B2 7.72792e-06
7 *373:B1 *288:36 2.39679e-06
8 *373:B1 *288:43 7.19036e-06
9 *437:B1 *370:A3 2.94455e-05
10 *437:B1 *373:A 5.05349e-05
11 *437:B1 *439:A 2.28207e-05
12 *437:B1 *215:10 2.89018e-05
13 *69:12 *373:A 1.19839e-05
14 *69:12 *437:B2 9.76549e-06
15 *69:12 *215:10 0.000105038
16 *69:12 *220:22 6.21255e-06
*RES
1 *369:ZN *69:12 21.9286 
2 *69:12 *373:B1 6.25 
3 *69:12 *437:B1 21.3571 
*END

*D_NET *70 0.000174526
*CONN
*I *410:C1 I *D AOI211_X1
*I *373:C1 I *D AOI221_X1
*I *370:ZN O *D NOR4_X1
*CAP
1 *410:C1 2.11142e-05
2 *373:C1 2.77432e-05
3 *370:ZN 3.32408e-06
4 *70:6 5.21814e-05
5 *373:C1 *370:A2 1.89851e-06
6 *373:C1 *370:A3 8.43215e-07
7 *373:C1 *375:B1 0
8 *373:C1 *439:A 2.40328e-05
9 *410:C1 *410:A 8.43215e-07
10 *410:C1 *410:B 2.53997e-05
11 *410:C1 *439:A 3.91113e-06
12 *70:6 *370:A2 1.08381e-05
13 *70:6 *410:B 2.39679e-06
*RES
1 *370:ZN *70:6 6.25 
2 *70:6 *373:C1 8.85714 
3 *70:6 *410:C1 7.75 
*END

*D_NET *71 0.000260663
*CONN
*I *372:B2 I *D OAI21_X1
*I *371:ZN O *D INV_X1
*CAP
1 *372:B2 6.27224e-05
2 *371:ZN 6.27224e-05
3 *372:B2 *335:A 1.19839e-05
4 *372:B2 *336:A 3.19164e-07
5 *372:B2 *338:A1 2.09245e-05
6 *372:B2 *372:B1 8.43215e-07
7 *372:B2 *373:C2 1.79513e-05
8 *372:B2 *439:B1 6.75896e-05
9 *372:B2 *266:17 2.39679e-06
10 *372:B2 *277:49 6.64921e-06
11 *38:12 *372:B2 6.56007e-06
*RES
1 *371:ZN *372:B2 28.25 
*END

*D_NET *72 0.000924157
*CONN
*I *373:C2 I *D AOI221_X1
*I *372:ZN O *D OAI21_X1
*CAP
1 *373:C2 0.000161069
2 *372:ZN 0.000161069
3 *373:C2 *335:A 0.000101284
4 *373:C2 *338:A1 2.7069e-05
5 *373:C2 *373:A 2.39679e-06
6 *373:C2 *375:B1 1.85634e-05
7 *373:C2 *439:A 2.85072e-05
8 *373:C2 *439:B1 0.000228936
9 *373:C2 *173:28 0.00011868
10 *373:C2 *246:11 1.42383e-06
11 *373:C2 *277:49 5.59811e-06
12 *373:C2 *277:55 1.20936e-06
13 *373:C2 *288:36 1.89851e-06
14 *373:C2 *293:28 3.22061e-05
15 *372:B2 *373:C2 1.79513e-05
16 *38:12 *373:C2 1.62946e-05
*RES
1 *372:ZN *373:C2 46.4286 
*END

*D_NET *73 0.00055416
*CONN
*I *375:B1 I *D OAI21_X1
*I *373:ZN O *D AOI221_X1
*CAP
1 *375:B1 0.00014193
2 *373:ZN 0.00014193
3 *375:B1 *375:B2 9.08971e-06
4 *375:B1 *409:B1 3.46864e-06
5 *375:B1 *410:A 0
6 *375:B1 *411:C1 0.000140418
7 *375:B1 *439:A 3.65322e-06
8 *375:B1 *439:B1 1.37673e-05
9 *375:B1 *440:C2 4.73201e-05
10 *375:B1 *288:36 1.20897e-05
11 *373:C1 *375:B1 0
12 *373:C2 *375:B1 1.85634e-05
13 *375:A *375:B1 7.19036e-06
14 *36:8 *375:B1 1.89851e-06
15 *36:14 *375:B1 1.28407e-05
16 *67:8 *375:B1 0
*RES
1 *373:ZN *375:B1 31.7857 
*END

*D_NET *74 0.000315743
*CONN
*I *375:B2 I *D OAI21_X1
*I *374:ZN O *D INV_X1
*CAP
1 *375:B2 7.04431e-05
2 *374:ZN 7.04431e-05
3 *375:B2 *440:C2 2.4736e-05
4 *375:B2 *169:14 1.1516e-05
5 *375:B2 *263:31 1.96924e-05
6 *374:A *375:B2 1.04049e-05
7 *375:A *375:B2 2.08098e-06
8 *375:B1 *375:B2 9.08971e-06
9 *33:12 *375:B2 9.73363e-05
*RES
1 *374:ZN *375:B2 30.6429 
*END

*D_NET *75 0.000757386
*CONN
*I *376:B2 I *D AOI21_X1
*I *375:ZN O *D OAI21_X1
*CAP
1 *376:B2 0.00018569
2 *375:ZN 0.00018569
3 *376:B2 *330:A1 1.25215e-05
4 *376:B2 *330:A2 2.38892e-05
5 *376:B2 *330:A3 1.64866e-05
6 *376:B2 *330:A4 3.53857e-06
7 *376:B2 *366:A 7.82554e-05
8 *376:B2 *377:B1 8.59171e-06
9 *376:B2 *409:B1 4.29713e-06
10 *376:B2 *436:A 0
11 *376:B2 *441:B2 2.16443e-05
12 *376:B2 *235:21 2.35379e-05
13 *376:B2 *236:25 1.9872e-05
14 *376:B2 *237:31 0
15 *376:B2 *238:17 0
16 *375:A *376:B2 1.43238e-06
17 *376:B1 *376:B2 2.94435e-05
18 *409:A *376:B2 1.59582e-06
19 *32:10 *376:B2 0.000140901
*RES
1 *375:ZN *376:B2 46.9643 
*END

*D_NET *76 0.00011907
*CONN
*I *377:B2 I *D OAI21_X1
*I *376:ZN O *D AOI21_X1
*CAP
1 *377:B2 5.08904e-05
2 *376:ZN 5.08904e-05
3 *377:B2 *377:B1 7.02161e-06
4 *377:B2 *441:B2 6.38328e-07
5 *377:B2 *442:B2 0
6 *377:B2 *263:45 9.62961e-06
*RES
1 *376:ZN *377:B2 16.4643 
*END

*D_NET *77 0.00116964
*CONN
*I *378:B1 I *D AOI21_X1
*I *377:ZN O *D OAI21_X1
*CAP
1 *378:B1 1.09209e-05
2 *377:ZN 0.000264866
3 *77:10 0.000275787
4 *378:B1 *78:10 2.39679e-06
5 *378:B1 *260:25 3.23723e-07
6 *378:B1 *265:37 4.78054e-06
7 *77:10 *377:B1 0
8 *77:10 *407:A 0
9 *77:10 *137:10 0.00060935
10 *77:10 *250:37 0
11 *378:B2 *378:B1 1.21774e-06
*RES
1 *377:ZN *77:10 49.8572 
2 *77:10 *378:B1 6.25 
*END

*D_NET *78 0.000915185
*CONN
*I *391:B1 I *D OAI221_X1
*I *378:ZN O *D AOI21_X1
*CAP
1 *391:B1 0
2 *378:ZN 0.000342927
3 *78:10 0.000342927
4 *78:10 *407:A 0.000130242
5 *78:10 *138:12 0
6 *78:10 *228:14 0
7 *78:10 *253:13 0
8 *78:10 *254:23 4.69645e-06
9 *78:10 *257:21 4.11048e-05
10 *78:10 *257:25 1.66988e-05
11 *78:10 *260:25 1.18607e-05
12 *78:10 *265:37 1.08945e-05
13 *363:B1 *78:10 0
14 *378:B1 *78:10 2.39679e-06
15 *434:A *78:10 1.14365e-05
16 *23:12 *78:10 0
*RES
1 *378:ZN *78:10 47.5714 
2 *78:10 *391:B1 10 
*END

*D_NET *79 0.00111798
*CONN
*I *391:C1 I *D OAI221_X1
*I *434:B2 I *D OAI21_X1
*I *420:A I *D AOI21_X1
*I *379:ZN O *D NAND2_X1
*CAP
1 *391:C1 0.000109439
2 *434:B2 6.61093e-05
3 *420:A 9.66229e-05
4 *379:ZN 1.82573e-05
5 *79:12 0.000203558
6 *79:10 0.000168522
7 *391:C1 *391:C2 1.02133e-05
8 *391:C1 *403:A 7.19036e-06
9 *391:C1 *90:12 0
10 *420:A *403:A 5.41015e-05
11 *420:A *119:18 1.18232e-06
12 *420:A *243:13 2.66814e-06
13 *420:A *251:17 3.6262e-05
14 *420:A *268:49 1.40569e-05
15 *434:B2 *434:B1 1.03979e-05
16 *434:B2 *90:12 9.4961e-06
17 *434:B2 *119:18 0.000117137
18 *434:B2 *273:17 5.24777e-05
19 *79:10 *243:13 2.26304e-06
20 *79:12 *403:A 0.000106082
21 *79:12 *243:13 6.08864e-06
22 *379:A1 *391:C1 0
23 *379:A1 *79:10 3.09411e-06
24 *420:B1 *420:A 2.75346e-06
25 *427:B1 *79:10 1.14365e-05
26 *427:B1 *79:12 4.12796e-06
27 *9:16 *79:10 4.43868e-06
*RES
1 *379:ZN *79:10 13.0357 
2 *79:10 *79:12 6.35715 
3 *79:12 *420:A 22.2143 
4 *79:12 *434:B2 21.25 
5 *79:10 *391:C1 21.25 
*END

*D_NET *80 0.000142642
*CONN
*I *390:B1 I *D AOI21_X1
*I *380:ZN O *D INV_X1
*CAP
1 *390:B1 6.39139e-05
2 *380:ZN 6.39139e-05
3 *390:B1 *309:A1 0
4 *390:B1 *264:9 1.16685e-05
5 *390:B1 *274:29 3.14604e-06
*RES
1 *380:ZN *390:B1 26.8929 
*END

*D_NET *81 0.000312728
*CONN
*I *389:A I *D OAI21_X1
*I *381:ZN O *D INV_X1
*CAP
1 *389:A 4.28106e-05
2 *381:ZN 4.28106e-05
3 *389:A *389:B1 0.000118825
4 *389:A *264:9 9.90601e-06
5 *389:A *267:19 4.37312e-05
6 *389:A *271:19 5.46453e-05
*RES
1 *381:ZN *389:A 29.0714 
*END

*D_NET *82 0.000171987
*CONN
*I *388:B1 I *D AOI221_X1
*I *382:ZN O *D INV_X1
*CAP
1 *388:B1 4.11811e-05
2 *382:ZN 4.11811e-05
3 *388:B1 *264:9 2.32054e-05
4 *388:B1 *267:19 1.21072e-05
5 *388:B1 *268:57 1.72426e-05
6 *388:B1 *272:13 2.71569e-05
7 *388:C1 *388:B1 9.9131e-06
*RES
1 *382:ZN *388:B1 27.7143 
*END

*D_NET *83 0.000166571
*CONN
*I *384:B1 I *D AOI21_X1
*I *383:ZN O *D INV_X1
*CAP
1 *384:B1 3.53691e-05
2 *383:ZN 3.53691e-05
3 *384:B1 *312:A3 5.46411e-05
4 *384:B1 *264:9 2.72417e-06
5 *384:B1 *264:13 1.01993e-05
6 *384:B1 *272:13 2.82685e-05
*RES
1 *383:ZN *384:B1 26.3571 
*END

*D_NET *84 0.000263143
*CONN
*I *387:A I *D OAI21_X1
*I *384:ZN O *D AOI21_X1
*CAP
1 *387:A 7.30526e-05
2 *384:ZN 7.30526e-05
3 *387:A *312:A4 5.10087e-06
4 *387:A *387:B1 2.00057e-05
5 *387:A *401:A2 1.89851e-06
6 *387:A *401:A3 8.43215e-07
7 *387:A *402:C1 2.72417e-06
8 *387:A *265:41 6.84316e-05
9 *387:A *265:49 1.80335e-05
*RES
1 *384:ZN *387:A 29.6071 
*END

*D_NET *85 0.000208937
*CONN
*I *386:B1 I *D AOI21_X1
*I *400:B1 I *D AOI21_X1
*I *385:ZN O *D INV_X1
*CAP
1 *386:B1 6.09993e-06
2 *400:B1 2.47749e-05
3 *385:ZN 1.72779e-05
4 *85:8 4.81527e-05
5 *386:B1 *386:A 7.19036e-06
6 *386:B1 *386:B2 2.52965e-06
7 *400:B1 *386:A 2.3767e-06
8 *400:B1 *386:B2 3.09143e-06
9 *400:B1 *399:A 1.05067e-05
10 *85:8 *386:A 2.84765e-06
11 *85:8 *259:17 0
12 *400:A *400:B1 4.24402e-05
13 *400:A *85:8 1.60566e-05
14 *15:36 *85:8 2.5592e-05
*RES
1 *385:ZN *85:8 12.2857 
2 *85:8 *400:B1 13.7143 
3 *85:8 *386:B1 10.75 
*END

*D_NET *86 0.000211958
*CONN
*I *387:B1 I *D OAI21_X1
*I *386:ZN O *D AOI21_X1
*CAP
1 *387:B1 5.07756e-05
2 *386:ZN 5.07756e-05
3 *387:B1 *401:A3 1.82661e-05
4 *387:B1 *402:C1 4.96264e-05
5 *387:B1 *265:37 2.08416e-06
6 *387:A *387:B1 2.00057e-05
7 *15:8 *387:B1 8.43215e-07
8 *15:21 *387:B1 1.95807e-05
*RES
1 *386:ZN *387:B1 27.9643 
*END

*D_NET *87 0.000878135
*CONN
*I *388:C2 I *D AOI221_X1
*I *387:ZN O *D OAI21_X1
*CAP
1 *388:C2 0.000142493
2 *387:ZN 0.000142493
3 *388:C2 *388:A 0.000122284
4 *388:C2 *402:A 2.16578e-05
5 *388:C2 *402:B 1.20936e-06
6 *388:C2 *402:C1 1.15581e-05
7 *388:C2 *403:B1 3.61378e-07
8 *388:C2 *264:9 4.12796e-06
9 *388:C2 *265:41 2.16603e-05
10 *388:C2 *268:49 9.26023e-08
11 *388:C2 *269:34 5.46432e-05
12 *388:C2 *270:17 0.000288547
13 *388:C2 *270:28 4.18985e-05
14 *388:C1 *388:C2 4.77786e-06
15 *12:14 *388:C2 1.20697e-05
16 *15:8 *388:C2 8.26038e-06
*RES
1 *387:ZN *388:C2 46.6429 
*END

*D_NET *88 0.000190432
*CONN
*I *389:B2 I *D OAI21_X1
*I *388:ZN O *D AOI221_X1
*CAP
1 *389:B2 2.57614e-05
2 *388:ZN 2.57614e-05
3 *389:B2 *264:9 9.05228e-06
4 *389:B2 *267:19 4.78905e-05
5 *389:B2 *268:57 8.19658e-05
*RES
1 *388:ZN *389:B2 26.3571 
*END

*D_NET *89 0.00025105
*CONN
*I *390:B2 I *D AOI21_X1
*I *389:ZN O *D OAI21_X1
*CAP
1 *390:B2 4.28818e-05
2 *389:ZN 4.28818e-05
3 *390:B2 *309:A1 2.51113e-05
4 *390:B2 *389:B1 6.84316e-05
5 *390:B2 *397:A1 8.90543e-06
6 *390:B2 *264:9 2.99163e-05
7 *390:B2 *267:19 3.01743e-06
8 *390:B2 *273:17 7.16188e-07
9 *390:B2 *273:25 2.80025e-05
10 *390:B2 *274:29 1.18589e-06
*RES
1 *389:ZN *390:B2 28.0714 
*END

*D_NET *90 0.00105189
*CONN
*I *391:C2 I *D OAI221_X1
*I *434:B1 I *D OAI21_X1
*I *390:ZN O *D AOI21_X1
*CAP
1 *391:C2 3.78395e-05
2 *434:B1 2.20858e-05
3 *390:ZN 0.000331527
4 *90:12 0.000391453
5 *391:C2 *119:18 3.19164e-07
6 *434:B1 *119:18 1.18547e-06
7 *90:12 *344:A 7.72537e-06
8 *90:12 *396:C2 2.23871e-06
9 *90:12 *403:A 0
10 *90:12 *421:B 1.87369e-06
11 *90:12 *427:A 1.60038e-06
12 *90:12 *119:18 7.19036e-06
13 *90:12 *273:17 9.0109e-05
14 *90:12 *273:25 2.37093e-06
15 *90:12 *274:25 0
16 *90:12 *274:29 6.38328e-07
17 *345:B1 *90:12 1.75197e-05
18 *391:A *391:C2 1.32348e-05
19 *391:C1 *391:C2 1.02133e-05
20 *391:C1 *90:12 0
21 *421:A *90:12 9.92221e-06
22 *421:C1 *90:12 8.26038e-06
23 *434:A *434:B1 1.32323e-05
24 *434:B2 *434:B1 1.03979e-05
25 *434:B2 *90:12 9.4961e-06
26 *2:14 *90:12 1.25215e-05
27 *2:27 *90:12 4.89324e-05
*RES
1 *390:ZN *90:12 45.7143 
2 *90:12 *434:B1 8.17857 
3 *90:12 *391:C2 10.2143 
*END

*D_NET *91 7.04073e-05
*CONN
*I *392:A I *D BUF_X2
*I *391:ZN O *D OAI221_X1
*CAP
1 *392:A 3.48455e-05
2 *391:ZN 3.48455e-05
3 *392:A *227:10 7.16188e-07
4 *391:B2 *392:A 0
*RES
1 *391:ZN *392:A 13.75 
*END

*D_NET *92 0.000331439
*CONN
*I *396:B I *D OAI211_X1
*I *393:ZN O *D OAI21_X1
*CAP
1 *396:B 6.71186e-05
2 *393:ZN 6.71186e-05
3 *396:B *396:C1 4.12459e-06
4 *396:B *93:10 7.93012e-05
5 *396:B *94:14 8.15072e-06
6 *396:B *274:25 0
7 *396:B *287:44 2.39679e-06
8 *395:A2 *396:B 4.77786e-06
9 *396:A *396:B 2.75346e-06
10 *421:C1 *396:B 7.93012e-05
11 *1:25 *396:B 1.63962e-05
*RES
1 *393:ZN *396:B 30.3214 
*END

*D_NET *93 0.00109603
*CONN
*I *396:C1 I *D OAI211_X1
*I *394:ZN O *D AOI211_X1
*CAP
1 *396:C1 1.15845e-05
2 *394:ZN 0.000195269
3 *93:10 0.000206853
4 *396:C1 *396:C2 2.24822e-06
5 *396:C1 *403:A 1.32348e-05
6 *93:10 *394:B 1.21774e-06
7 *93:10 *94:14 8.00908e-05
8 *93:10 *252:9 0.000243842
9 *93:10 *282:29 1.87369e-06
10 *394:C2 *93:10 7.72537e-06
11 *395:A2 *396:C1 3.19164e-07
12 *396:A *396:C1 2.75346e-06
13 *396:B *396:C1 4.12459e-06
14 *396:B *93:10 7.93012e-05
15 *421:C1 *93:10 0.000173256
16 *7:10 *93:10 3.09028e-05
17 *7:12 *93:10 4.14348e-05
*RES
1 *394:ZN *93:10 49 
2 *93:10 *396:C1 11.75 
*END

*D_NET *94 0.00092324
*CONN
*I *427:A I *D AOI21_X1
*I *396:C2 I *D OAI211_X1
*I *395:ZN O *D NAND2_X1
*CAP
1 *427:A 8.29303e-05
2 *396:C2 1.48843e-05
3 *395:ZN 6.33138e-05
4 *94:14 0.000161128
5 *396:C2 *403:A 1.82068e-05
6 *396:C2 *421:B 3.56012e-06
7 *427:A *403:A 3.66677e-05
8 *427:A *243:13 0.000207421
9 *427:A *245:9 8.08846e-05
10 *427:A *245:13 2.61401e-05
11 *94:14 *345:A 0
12 *94:14 *345:B2 0
13 *94:14 *252:9 0.000105288
14 *300:A1 *94:14 2.15711e-05
15 *379:A1 *94:14 0
16 *396:A *94:14 0
17 *396:B *94:14 8.15072e-06
18 *396:C1 *396:C2 2.24822e-06
19 *421:A *396:C2 2.75346e-06
20 *421:C1 *94:14 4.16195e-06
21 *90:12 *396:C2 2.23871e-06
22 *90:12 *427:A 1.60038e-06
23 *93:10 *94:14 8.00908e-05
*RES
1 *395:ZN *94:14 24.8571 
2 *94:14 *396:C2 7.25 
3 *94:14 *427:A 29.8571 
*END

*D_NET *95 0.000789529
*CONN
*I *403:A I *D AOI21_X1
*I *396:ZN O *D OAI211_X1
*CAP
1 *403:A 0.000151779
2 *396:ZN 0.000151779
3 *403:A *403:B1 3.65322e-06
4 *403:A *124:12 1.91667e-07
5 *403:A *243:13 0
6 *403:A *279:13 4.12796e-06
7 *300:A1 *403:A 1.91954e-06
8 *379:A1 *403:A 0
9 *391:C1 *403:A 7.19036e-06
10 *395:A2 *403:A 0
11 *396:C1 *403:A 1.32348e-05
12 *396:C2 *403:A 1.82068e-05
13 *420:A *403:A 5.41015e-05
14 *427:A *403:A 3.66677e-05
15 *427:B1 *403:A 0.000240594
16 *79:12 *403:A 0.000106082
17 *90:12 *403:A 0
*RES
1 *396:ZN *403:A 43.1429 
*END

*D_NET *96 0.000435924
*CONN
*I *402:A I *D OAI211_X1
*I *397:ZN O *D NOR2_X1
*CAP
1 *402:A 7.02163e-05
2 *397:ZN 7.02163e-05
3 *402:A *398:B1 0
4 *402:A *402:B 2.39679e-06
5 *402:A *402:C1 2.39679e-06
6 *402:A *403:B1 2.90417e-06
7 *402:A *264:9 4.31002e-05
8 *388:C2 *402:A 2.16578e-05
9 *12:14 *402:A 0.000223036
*RES
1 *397:ZN *402:A 33.8929 
*END

*D_NET *97 0.000172765
*CONN
*I *402:B I *D OAI211_X1
*I *398:ZN O *D OAI21_X1
*CAP
1 *402:B 3.68888e-05
2 *398:ZN 3.68888e-05
3 *402:B *402:C1 5.87678e-05
4 *402:B *403:B1 1.26998e-05
5 *402:B *269:34 7.66675e-07
6 *388:C2 *402:B 1.20936e-06
7 *402:A *402:B 2.39679e-06
8 *12:14 *402:B 2.31472e-05
*RES
1 *398:ZN *402:B 25.5714 
*END

*D_NET *98 1.74261e-05
*CONN
*I *400:B2 I *D AOI21_X1
*I *399:ZN O *D INV_X1
*CAP
1 *400:B2 8.71307e-06
2 *399:ZN 8.71307e-06
*RES
1 *399:ZN *400:B2 10.9286 
*END

*D_NET *99 0.000126308
*CONN
*I *401:A3 I *D NOR3_X1
*I *400:ZN O *D AOI21_X1
*CAP
1 *401:A3 5.16009e-05
2 *400:ZN 5.16009e-05
3 *401:A3 *401:A2 2.39679e-06
4 *387:A *401:A3 8.43215e-07
5 *387:B1 *401:A3 1.82661e-05
6 *15:21 *401:A3 1.60038e-06
*RES
1 *400:ZN *401:A3 16.3571 
*END

*D_NET *100 0.000539912
*CONN
*I *402:C1 I *D OAI211_X1
*I *401:ZN O *D NOR3_X1
*CAP
1 *402:C1 0.000193932
2 *401:ZN 0.000193932
3 *402:C1 *403:B1 4.32144e-07
4 *402:C1 *265:41 5.39412e-06
5 *402:C1 *269:34 6.94708e-06
6 *387:A *402:C1 2.72417e-06
7 *387:B1 *402:C1 4.96264e-05
8 *388:C2 *402:C1 1.15581e-05
9 *402:A *402:C1 2.39679e-06
10 *402:B *402:C1 5.87678e-05
11 *402:C2 *402:C1 6.65423e-06
12 *15:21 *402:C1 7.54693e-06
13 *15:36 *402:C1 0
*RES
1 *401:ZN *402:C1 43.1072 
*END

*D_NET *101 0.00075001
*CONN
*I *403:B1 I *D AOI21_X1
*I *402:ZN O *D OAI211_X1
*CAP
1 *403:B1 0.0003364
2 *402:ZN 0.0003364
3 *403:B1 *310:A2 5.24746e-07
4 *403:B1 *310:A3 8.79329e-07
5 *403:B1 *398:B1 1.40196e-06
6 *403:B1 *428:A2 7.98366e-06
7 *403:B1 *124:12 8.89978e-06
8 *403:B1 *268:49 0
9 *311:A1 *403:B1 7.2187e-06
10 *388:C2 *403:B1 3.61378e-07
11 *402:A *403:B1 2.90417e-06
12 *402:B *403:B1 1.26998e-05
13 *402:C1 *403:B1 4.32144e-07
14 *402:C2 *403:B1 0
15 *403:A *403:B1 3.65322e-06
16 *403:B2 *403:B1 1.21774e-06
17 *419:A1 *403:B1 0
18 *427:B1 *403:B1 7.63158e-06
19 *427:B2 *403:B1 6.3924e-06
20 *14:6 *403:B1 1.50098e-05
*RES
1 *402:ZN *403:B1 46.6072 
*END

*D_NET *102 0.000308914
*CONN
*I *413:A I *D OAI21_X4
*I *403:ZN O *D AOI21_X1
*CAP
1 *413:A 0.000120736
2 *403:ZN 0.000120736
3 *413:A *111:18 6.38328e-07
4 *413:A *268:43 0
5 *413:A *268:49 0
6 *403:B2 *413:A 6.6804e-05
*RES
1 *403:ZN *413:A 24.75 
*END

*D_NET *103 0.00054772
*CONN
*I *407:A I *D OAI21_X1
*I *404:ZN O *D NOR2_X1
*CAP
1 *407:A 0.000167248
2 *404:ZN 0.000167248
3 *407:A *313:A4 1.51304e-05
4 *407:A *425:A 8.26038e-06
5 *407:A *104:16 5.13262e-06
6 *407:A *137:10 0
7 *407:A *254:23 0
8 *324:A1 *407:A 4.7856e-06
9 *324:A2 *407:A 4.1236e-05
10 *412:C2 *407:A 3.19164e-07
11 *23:12 *407:A 0
12 *23:16 *407:A 8.1183e-06
13 *77:10 *407:A 0
14 *78:10 *407:A 0.000130242
*RES
1 *404:ZN *407:A 39.3214 
*END

*D_NET *104 0.000773624
*CONN
*I *425:A I *D AOI21_X1
*I *407:B1 I *D OAI21_X1
*I *405:ZN O *D NAND2_X1
*CAP
1 *425:A 0.000157284
2 *407:B1 0
3 *405:ZN 5.24944e-05
4 *104:16 0.000209778
5 *425:A *412:A 5.5861e-05
6 *425:A *110:18 9.77674e-06
7 *425:A *112:12 1.04526e-05
8 *425:A *164:8 1.89131e-06
9 *425:A *237:29 2.66211e-07
10 *425:A *286:33 1.29822e-05
11 *104:16 *407:B2 6.95929e-06
12 *104:16 *250:37 1.72405e-05
13 *104:16 *253:13 6.08869e-06
14 *324:A1 *104:16 3.51471e-05
15 *339:A2 *425:A 2.27624e-05
16 *407:A *425:A 8.26038e-06
17 *407:A *104:16 5.13262e-06
18 *412:B2 *425:A 1.68643e-06
19 *412:C2 *425:A 0
20 *412:C2 *104:16 4.84077e-06
21 *417:A *104:16 6.85774e-07
22 *425:B1 *425:A 5.35076e-05
23 *23:16 *104:16 5.01473e-05
24 *26:8 *425:A 6.06412e-06
25 *30:25 *425:A 4.43147e-05
*RES
1 *405:ZN *104:16 22.9286 
2 *104:16 *407:B1 5 
3 *104:16 *425:A 37.7857 
*END

*D_NET *105 0.000753986
*CONN
*I *407:B2 I *D OAI21_X1
*I *406:ZN O *D AOI211_X1
*CAP
1 *407:B2 0.00014363
2 *406:ZN 0.00014363
3 *407:B2 *323:A2 5.05753e-05
4 *407:B2 *246:21 5.56936e-06
5 *407:B2 *250:41 3.82997e-06
6 *407:B2 *286:33 0.00011163
7 *412:C2 *407:B2 2.87683e-05
8 *417:A *407:B2 0
9 *417:B2 *407:B2 0.000101834
10 *27:19 *407:B2 1.72405e-05
11 *27:30 *407:B2 0.00014032
12 *104:16 *407:B2 6.95929e-06
*RES
1 *406:ZN *407:B2 45.3214 
*END

*D_NET *106 0.000138497
*CONN
*I *412:A I *D AOI221_X2
*I *407:ZN O *D OAI21_X1
*CAP
1 *412:A 2.95618e-05
2 *407:ZN 2.95618e-05
3 *412:A *286:33 2.35127e-05
4 *425:A *412:A 5.5861e-05
*RES
1 *407:ZN *412:A 15.25 
*END

*D_NET *107 0.000531658
*CONN
*I *411:A I *D OAI211_X1
*I *408:ZN O *D NOR2_X1
*CAP
1 *411:A 0.000120075
2 *408:ZN 0.000120075
3 *411:A *411:B 9.04604e-05
4 *411:A *238:17 0.000149956
5 *411:A *250:27 1.80284e-05
6 *32:10 *411:A 0
7 *32:21 *411:A 3.30629e-05
*RES
1 *408:ZN *411:A 38.75 
*END

*D_NET *108 0.00036275
*CONN
*I *411:B I *D OAI211_X1
*I *409:ZN O *D OAI21_X1
*CAP
1 *411:B 4.72477e-05
2 *409:ZN 4.72477e-05
3 *411:B *411:C1 2.52965e-06
4 *411:B *164:12 7.72537e-06
5 *411:B *219:8 0.000153855
6 *411:A *411:B 9.04604e-05
7 *32:10 *411:B 6.50581e-06
8 *32:21 *411:B 7.17938e-06
*RES
1 *409:ZN *411:B 29.1429 
*END

*D_NET *109 0.000697033
*CONN
*I *411:C1 I *D OAI211_X1
*I *410:ZN O *D AOI211_X1
*CAP
1 *411:C1 0.000177938
2 *410:ZN 0.000177938
3 *411:C1 *409:B1 4.43172e-05
4 *411:C1 *410:A 8.43215e-07
5 *411:C1 *164:12 1.76613e-06
6 *411:C1 *169:14 2.43932e-05
7 *411:C1 *246:13 6.42049e-05
8 *411:C1 *250:27 2.05798e-05
9 *411:C1 *282:17 1.69579e-05
10 *375:A *411:C1 1.52083e-06
11 *375:B1 *411:C1 0.000140418
12 *411:B *411:C1 2.52965e-06
13 *33:25 *411:C1 2.36265e-05
*RES
1 *410:ZN *411:C1 46.5357 
*END

*D_NET *110 0.00091271
*CONN
*I *412:B1 I *D AOI221_X2
*I *411:ZN O *D OAI211_X1
*CAP
1 *412:B1 0
2 *411:ZN 0.000212527
3 *110:18 0.000212527
4 *110:18 *112:12 2.72171e-06
5 *110:18 *137:10 0
6 *110:18 *164:8 0.000205296
7 *110:18 *164:12 3.80828e-05
8 *110:18 *237:29 0
9 *110:18 *246:13 0.00015908
10 *412:B2 *110:18 7.72537e-06
11 *414:A1 *110:18 3.00683e-05
12 *425:A *110:18 9.77674e-06
13 *425:B1 *110:18 2.39679e-06
14 *30:25 *110:18 3.25083e-05
*RES
1 *411:ZN *110:18 47.8214 
2 *110:18 *412:B1 5 
*END

*D_NET *111 0.00105597
*CONN
*I *413:B1 I *D OAI21_X4
*I *412:ZN O *D AOI221_X2
*CAP
1 *413:B1 0
2 *412:ZN 0.000189052
3 *111:18 0.000189052
4 *111:18 *115:16 6.48216e-07
5 *111:18 *137:10 7.00661e-06
6 *111:18 *138:12 5.26612e-05
7 *111:18 *164:8 3.73887e-05
8 *111:18 *256:13 0.000268148
9 *111:18 *256:23 5.74483e-05
10 *111:18 *268:43 2.43548e-06
11 *339:A2 *111:18 7.72792e-06
12 *378:A *111:18 9.90355e-06
13 *378:B2 *111:18 0.000129699
14 *403:B2 *111:18 0
15 *413:A *111:18 6.38328e-07
16 *413:B2 *111:18 7.72537e-06
17 *443:C1 *111:18 9.64383e-05
*RES
1 *412:ZN *111:18 48.7857 
2 *111:18 *413:B1 5 
*END

*D_NET *112 0.00161545
*CONN
*I *416:A I *D AOI21_X1
*I *480:A3 I *D NAND3_X1
*I *431:A2 I *D NAND2_X1
*I *443:B1 I *D OAI221_X1
*I *414:ZN O *D NAND2_X1
*CAP
1 *416:A 4.42157e-05
2 *480:A3 5.73273e-05
3 *431:A2 0
4 *443:B1 0.000146731
5 *414:ZN 6.85178e-05
6 *112:20 0.000152374
7 *112:16 0.000223754
8 *112:12 0.000273518
9 *416:A *286:33 1.62087e-05
10 *443:B1 *432:A2 7.72537e-06
11 *443:B1 *443:B2 2.39679e-06
12 *443:B1 *443:C2 5.90251e-06
13 *443:B1 *222:12 4.79202e-06
14 *443:B1 *256:23 2.98244e-06
15 *480:A3 *432:A2 2.9286e-05
16 *480:A3 *182:12 7.72537e-06
17 *112:12 *237:29 8.59171e-06
18 *112:12 *286:33 4.11282e-05
19 *112:16 *418:B1 0
20 *112:16 *426:A2 1.23399e-05
21 *112:16 *201:12 0
22 *112:20 *432:A2 7.19036e-06
23 *316:A *112:16 2.94455e-05
24 *317:A *112:16 0
25 *416:B1 *416:A 1.25215e-05
26 *425:A *112:12 1.04526e-05
27 *425:B1 *112:12 3.69158e-05
28 *425:B2 *416:A 4.06149e-05
29 *425:B2 *112:12 7.72537e-06
30 *431:A1 *443:B1 6.38328e-07
31 *480:A2 *480:A3 2.75346e-06
32 *11:44 *480:A3 1.87369e-06
33 *17:14 *443:B1 2.4843e-05
34 *17:18 *443:B1 1.86809e-06
35 *18:8 *480:A3 0.000100547
36 *18:8 *112:16 0.000219622
37 *19:8 *112:16 0
38 *20:10 *480:A3 1.02017e-05
39 *110:18 *112:12 2.72171e-06
*RES
1 *414:ZN *112:12 26.0357 
2 *112:12 *112:16 24.25 
3 *112:16 *112:20 5.75 
4 *112:20 *443:B1 21.6071 
5 *112:20 *431:A2 5 
6 *112:16 *480:A3 19.1429 
7 *112:12 *416:A 12.1071 
*END

*D_NET *113 0.000192131
*CONN
*I *416:B2 I *D AOI21_X1
*I *415:ZN O *D NAND2_X1
*CAP
1 *416:B2 3.99601e-05
2 *415:ZN 3.99601e-05
3 *416:B2 *219:8 2.48069e-05
4 *416:B2 *278:21 3.3125e-05
5 *416:B2 *282:21 2.7613e-05
6 *416:B2 *290:25 1.18589e-06
7 *416:B1 *416:B2 2.54802e-05
*RES
1 *415:ZN *416:B2 26.8929 
*END

*D_NET *114 0.00034781
*CONN
*I *418:B1 I *D OAI21_X1
*I *416:ZN O *D AOI21_X1
*CAP
1 *418:B1 9.85931e-05
2 *416:ZN 9.85931e-05
3 *418:B1 *219:8 2.29188e-05
4 *418:B1 *258:27 4.48647e-05
5 *418:B1 *286:33 3.09411e-06
6 *316:A *418:B1 5.10699e-05
7 *416:B1 *418:B1 2.38892e-05
8 *19:8 *418:B1 4.7875e-06
9 *112:16 *418:B1 0
*RES
1 *416:ZN *418:B1 33.2857 
*END

*D_NET *115 0.00104103
*CONN
*I *418:B2 I *D OAI21_X1
*I *417:ZN O *D OAI21_X1
*CAP
1 *418:B2 6.65564e-05
2 *417:ZN 0.000155886
3 *115:16 0.000222442
4 *418:B2 *116:8 4.72217e-05
5 *418:B2 *258:27 1.6291e-05
6 *115:16 *250:41 3.29442e-05
7 *115:16 *253:13 6.66025e-06
8 *115:16 *254:23 5.7295e-06
9 *115:16 *258:27 9.83189e-05
10 *115:16 *261:17 3.23723e-07
11 *115:16 *290:29 9.16327e-05
12 *316:A *418:B2 2.75346e-06
13 *339:A2 *418:B2 0.000135869
14 *339:A2 *115:16 1.91498e-06
15 *363:B2 *115:16 6.78878e-05
16 *412:C1 *115:16 1.27626e-05
17 *414:A1 *115:16 0
18 *417:A *115:16 3.24066e-05
19 *23:12 *115:16 2.92206e-05
20 *23:40 *115:16 1.32348e-05
21 *25:12 *115:16 3.23723e-07
22 *111:18 *115:16 6.48216e-07
*RES
1 *417:ZN *115:16 38.7857 
2 *115:16 *418:B2 17.25 
*END

*D_NET *116 0.00135328
*CONN
*I *422:A1 I *D AND2_X1
*I *418:ZN O *D OAI21_X1
*CAP
1 *422:A1 0.000197276
2 *418:ZN 2.67072e-05
3 *116:8 0.000223984
4 *422:A1 *422:A2 7.19036e-06
5 *422:A1 *450:A 2.39679e-06
6 *422:A1 *129:8 7.19036e-06
7 *422:A1 *201:12 0.000141317
8 *422:A1 *237:29 3.25234e-05
9 *422:A1 *260:23 0.000616141
10 *116:8 *258:27 9.68176e-06
11 *418:B2 *116:8 4.72217e-05
12 *21:35 *422:A1 4.16464e-05
*RES
1 *418:ZN *116:8 14.25 
2 *116:8 *422:A1 48.3214 
*END

*D_NET *117 0.000368955
*CONN
*I *420:B2 I *D AOI21_X1
*I *419:ZN O *D NAND2_X1
*CAP
1 *420:B2 8.02816e-05
2 *419:ZN 8.02816e-05
3 *420:B2 *268:49 1.25215e-05
4 *420:B2 *269:17 5.74495e-06
5 *420:B2 *274:17 0.000170266
6 *420:B2 *286:37 9.38394e-06
7 *420:B1 *420:B2 4.78054e-06
8 *14:6 *420:B2 5.69552e-06
*RES
1 *419:ZN *420:B2 32.5714 
*END

*D_NET *118 0.000252214
*CONN
*I *421:B I *D AOI211_X1
*I *420:ZN O *D AOI21_X1
*CAP
1 *421:B 6.1432e-05
2 *420:ZN 6.1432e-05
3 *421:B *251:21 5.54348e-05
4 *421:B *252:9 2.80513e-05
5 *421:B *274:17 1.3252e-05
6 *396:C2 *421:B 3.56012e-06
7 *421:A *421:B 2.75346e-06
8 *421:C1 *421:B 2.44242e-05
9 *90:12 *421:B 1.87369e-06
*RES
1 *420:ZN *421:B 28.9643 
*END

*D_NET *119 0.00122175
*CONN
*I *422:A2 I *D AND2_X1
*I *421:ZN O *D AOI211_X1
*CAP
1 *422:A2 8.7511e-05
2 *421:ZN 0.00019127
3 *119:18 0.000278781
4 *422:A2 *129:8 5.71509e-05
5 *422:A2 *251:9 4.45502e-05
6 *422:A2 *251:17 0
7 *119:18 *129:8 6.56185e-06
8 *119:18 *251:17 0.000215893
9 *119:18 *273:17 4.25407e-05
10 *119:18 *274:17 1.43544e-05
11 *119:18 *286:37 1.0968e-05
12 *391:B2 *422:A2 0.000104712
13 *391:B2 *119:18 0
14 *391:C2 *119:18 3.19164e-07
15 *420:A *119:18 1.18232e-06
16 *420:B1 *119:18 1.28122e-06
17 *421:A *119:18 2.52965e-06
18 *422:A1 *422:A2 7.19036e-06
19 *434:B1 *119:18 1.18547e-06
20 *434:B2 *119:18 0.000117137
21 *2:14 *119:18 2.94435e-05
22 *90:12 *119:18 7.19036e-06
*RES
1 *421:ZN *119:18 45.3572 
2 *119:18 *422:A2 19.75 
*END

*D_NET *120 1.98064e-05
*CONN
*I *423:A I *D BUF_X1
*I *422:ZN O *D AND2_X1
*CAP
1 *423:A 6.62225e-06
2 *422:ZN 6.62225e-06
3 *423:A *470:A2 6.56185e-06
*RES
1 *422:ZN *423:A 10.9286 
*END

*D_NET *121 0.00267751
*CONN
*I *468:A1 I *D NAND3_X1
*I *470:A3 I *D NAND4_X1
*I *466:A3 I *D NAND4_X1
*I *451:A1 I *D NAND3_X1
*I *445:A1 I *D NAND3_X1
*I *448:A3 I *D NAND4_X1
*I *463:A1 I *D NAND3_X1
*I *424:A I *D INV_X2
*I *453:A3 I *D NAND4_X1
*I *423:Z O *D BUF_X1
*CAP
1 *468:A1 2.46772e-05
2 *470:A3 0
3 *466:A3 1.14703e-05
4 *451:A1 4.35298e-05
5 *445:A1 1.75849e-05
6 *448:A3 0
7 *463:A1 5.54628e-05
8 *424:A 0
9 *453:A3 5.85123e-05
10 *423:Z 1.05263e-05
11 *121:85 4.83365e-05
12 *121:58 7.71239e-05
13 *121:51 9.35392e-05
14 *121:47 0.000111302
15 *121:36 0.000141162
16 *121:12 0.000346515
17 *121:8 0.000258791
18 *445:A1 *445:A2 7.19036e-06
19 *445:A1 *451:A3 7.21335e-06
20 *445:A1 *126:59 2.07819e-05
21 *451:A1 *451:A2 7.19036e-06
22 *451:A1 *451:A3 4.6837e-06
23 *451:A1 *142:18 3.46864e-06
24 *451:A1 *143:41 2.39679e-06
25 *451:A1 *187:34 1.87392e-05
26 *453:A3 *430:A 0.000170808
27 *453:A3 *145:12 1.11168e-06
28 *453:A3 *226:8 0
29 *463:A1 *463:A2 2.39679e-06
30 *463:A1 *139:22 9.47968e-05
31 *463:A1 *183:18 0.000108737
32 *466:A3 *448:A1 4.7875e-06
33 *466:A3 *226:8 3.81944e-05
34 *466:A3 *277:33 7.48003e-06
35 *468:A1 *470:A4 2.39679e-06
36 *468:A1 *230:38 7.19036e-06
37 *468:A1 *260:15 7.98387e-05
38 *121:8 *201:12 4.80119e-06
39 *121:8 *260:15 4.26902e-05
40 *121:12 *450:B 0
41 *121:12 *139:22 4.10201e-05
42 *121:12 *141:34 2.04447e-05
43 *121:12 *227:14 0
44 *121:12 *228:29 0
45 *121:12 *228:36 0
46 *121:12 *229:8 3.37286e-06
47 *121:12 *260:23 6.48216e-07
48 *121:36 *226:8 4.16485e-05
49 *121:36 *229:8 4.52011e-06
50 *121:36 *229:66 5.93278e-05
51 *121:36 *251:9 0
52 *121:36 *277:33 7.0096e-06
53 *121:47 *226:8 6.26883e-05
54 *121:47 *277:33 1.14417e-05
55 *121:51 *126:59 2.39679e-06
56 *121:51 *161:22 2.54859e-05
57 *121:51 *183:18 5.43947e-06
58 *121:51 *230:82 3.09411e-06
59 *121:51 *230:97 4.02924e-05
60 *121:58 *126:59 2.04278e-05
61 *121:58 *143:41 0
62 *121:58 *230:97 3.09143e-06
63 *121:85 *260:15 0.000131941
64 *11:87 *468:A1 6.48216e-07
65 *21:35 *468:A1 7.42616e-05
66 *21:35 *121:8 5.59765e-05
67 *21:35 *121:85 0.000126903
*RES
1 *423:Z *121:8 12.9643 
2 *121:8 *121:12 29.25 
3 *121:12 *453:A3 24.0714 
4 *121:12 *424:A 5 
5 *121:12 *121:36 13.9643 
6 *121:36 *463:A1 20.25 
7 *121:36 *121:47 3.64286 
8 *121:47 *121:51 15.25 
9 *121:51 *448:A3 5 
10 *121:51 *121:58 2.25 
11 *121:58 *445:A1 7.75 
12 *121:58 *451:A1 10.7143 
13 *121:47 *466:A3 12.2857 
14 *121:8 *121:85 7.03572 
15 *121:85 *470:A3 10 
16 *121:85 *468:A1 15.0714 
*END

*D_NET *122 0.000354542
*CONN
*I *426:A2 I *D OR2_X1
*I *425:ZN O *D AOI21_X1
*CAP
1 *426:A2 9.1108e-05
2 *425:ZN 9.1108e-05
3 *426:A2 *201:12 2.39491e-05
4 *426:A2 *254:23 7.18518e-05
5 *426:A2 *258:27 4.41821e-05
6 *316:A *426:A2 1.14365e-05
7 *18:8 *426:A2 8.56664e-06
8 *112:16 *426:A2 1.23399e-05
*RES
1 *425:ZN *426:A2 33.7857 
*END

*D_NET *123 0.000753512
*CONN
*I *428:A1 I *D AND2_X1
*I *426:ZN O *D OR2_X1
*CAP
1 *428:A1 0.000114951
2 *426:ZN 0.000114951
3 *428:A1 *428:A2 2.75346e-06
4 *428:A1 *432:A2 0
5 *428:A1 *219:8 0.000376353
6 *428:A1 *257:13 2.26306e-06
7 *317:A *428:A1 1.77822e-05
8 *318:A *428:A1 1.87369e-06
9 *432:A1 *428:A1 1.72426e-05
10 *11:44 *428:A1 8.43215e-07
11 *11:48 *428:A1 0.000104499
*RES
1 *426:ZN *428:A1 40.6786 
*END

*D_NET *124 0.00105462
*CONN
*I *428:A2 I *D AND2_X1
*I *427:ZN O *D AOI21_X1
*CAP
1 *428:A2 0.000315213
2 *427:ZN 4.55814e-05
3 *124:12 0.000360795
4 *428:A2 *166:20 0
5 *428:A2 *182:12 0
6 *428:A2 *269:13 0
7 *428:A2 *269:17 0
8 *124:12 *243:13 8.14241e-05
9 *124:12 *268:49 2.86475e-06
10 *124:12 *279:13 0
11 *318:A *428:A2 7.31002e-05
12 *403:A *124:12 1.91667e-07
13 *403:B1 *428:A2 7.98366e-06
14 *403:B1 *124:12 8.89978e-06
15 *403:B2 *428:A2 9.04162e-05
16 *427:B1 *124:12 1.25189e-05
17 *428:A1 *428:A2 2.75346e-06
18 *11:35 *428:A2 3.83653e-05
19 *11:44 *428:A2 1.45094e-05
*RES
1 *427:ZN *124:12 21.5714 
2 *124:12 *428:A2 44.25 
*END

*D_NET *125 0.000136395
*CONN
*I *429:A I *D BUF_X2
*I *428:ZN O *D AND2_X1
*CAP
1 *429:A 4.85989e-05
2 *428:ZN 4.85989e-05
3 *429:A *166:20 0
4 *318:A *429:A 3.93465e-06
5 *320:A *429:A 3.52625e-05
*RES
1 *428:ZN *429:A 16.1071 
*END

*D_NET *126 0.00306925
*CONN
*I *430:A I *D INV_X2
*I *453:A4 I *D NAND4_X1
*I *455:A2 I *D NAND3_X1
*I *457:A4 I *D NAND4_X1
*I *445:A2 I *D NAND3_X1
*I *451:A2 I *D NAND3_X1
*I *448:A4 I *D NAND4_X1
*I *459:A2 I *D NAND3_X1
*I *461:A4 I *D NAND4_X1
*I *429:Z O *D BUF_X2
*CAP
1 *430:A 6.57122e-05
2 *453:A4 0
3 *455:A2 3.36954e-05
4 *457:A4 0
5 *445:A2 4.12696e-06
6 *451:A2 2.16487e-05
7 *448:A4 0
8 *459:A2 4.17429e-05
9 *461:A4 0
10 *429:Z 8.05987e-05
11 *126:97 8.83761e-05
12 *126:59 5.36591e-05
13 *126:52 9.84147e-05
14 *126:37 0.000112274
15 *126:35 0.000162304
16 *126:12 0.000128609
17 *126:10 0.000103263
18 *430:A *141:34 0.000142533
19 *430:A *145:12 3.01743e-06
20 *430:A *183:18 2.52965e-06
21 *430:A *227:20 7.05197e-05
22 *430:A *227:26 5.06473e-05
23 *430:A *229:14 6.56029e-05
24 *430:A *230:16 6.48216e-07
25 *445:A2 *445:A3 4.97191e-06
26 *451:A2 *451:A3 7.19036e-06
27 *451:A2 *459:A3 8.58925e-06
28 *451:A2 *143:41 3.01743e-06
29 *455:A2 *455:A1 2.6988e-05
30 *455:A2 *455:A3 3.07262e-06
31 *455:A2 *459:A1 7.338e-06
32 *455:A2 *146:8 0
33 *455:A2 *229:79 2.39679e-06
34 *455:A2 *229:90 1.9263e-05
35 *459:A2 *455:A3 7.16188e-07
36 *459:A2 *459:A1 2.8458e-05
37 *459:A2 *459:A3 2.61448e-05
38 *459:A2 *147:12 5.70492e-06
39 *459:A2 *195:10 4.13708e-05
40 *459:A2 *232:32 1.1431e-05
41 *126:10 *454:A1 0
42 *126:10 *145:12 7.65033e-06
43 *126:10 *166:20 3.26992e-05
44 *126:10 *228:65 5.46453e-05
45 *126:35 *454:A1 1.52775e-05
46 *126:35 *454:A2 3.292e-06
47 *126:35 *461:A2 8.43215e-07
48 *126:35 *461:A3 6.68799e-05
49 *126:35 *149:10 1.34929e-05
50 *126:35 *165:20 8.52832e-05
51 *126:35 *166:20 3.46596e-06
52 *126:35 *195:10 1.34929e-05
53 *126:35 *215:10 5.42801e-06
54 *126:35 *226:14 4.07945e-05
55 *126:35 *227:33 8.48135e-05
56 *126:35 *229:79 1.74934e-05
57 *126:35 *232:32 0
58 *126:35 *268:39 3.95236e-05
59 *126:52 *457:A2 0.000320498
60 *126:52 *147:12 3.81093e-06
61 *126:52 *195:10 0.000341204
62 *126:59 *445:A3 1.32348e-05
63 *126:59 *161:22 1.19839e-05
64 *126:59 *183:18 2.51631e-06
65 *126:97 *145:12 1.27537e-05
66 *126:97 *227:26 1.72426e-05
67 *126:97 *228:61 1.26014e-05
68 *126:97 *228:65 2.54476e-05
69 *320:A *126:10 1.3414e-05
70 *445:A1 *445:A2 7.19036e-06
71 *445:A1 *126:59 2.07819e-05
72 *451:A1 *451:A2 7.19036e-06
73 *453:A3 *430:A 0.000170808
74 *22:89 *451:A2 5.41015e-05
75 *121:51 *126:59 2.39679e-06
76 *121:58 *126:59 2.04278e-05
*RES
1 *429:Z *126:10 20.7143 
2 *126:10 *126:12 5 
3 *126:12 *461:A4 5 
4 *126:12 *126:35 41.3214 
5 *126:35 *126:37 5 
6 *126:37 *459:A2 17.0357 
7 *126:37 *126:52 23.5714 
8 *126:52 *448:A4 5 
9 *126:52 *126:59 4.25 
10 *126:59 *451:A2 18.7143 
11 *126:59 *445:A2 5.75 
12 *126:35 *457:A4 5 
13 *126:35 *455:A2 10.9286 
14 *126:10 *126:97 3.64286 
15 *126:97 *453:A4 10 
16 *126:97 *430:A 25.25 
*END

*D_NET *127 0.000353924
*CONN
*I *432:A2 I *D NAND2_X1
*I *431:ZN O *D NAND2_X1
*CAP
1 *432:A2 0.000115626
2 *431:ZN 0.000115626
3 *432:A2 *182:12 1.63988e-05
4 *432:A2 *222:12 0
5 *432:A2 *257:13 1.51304e-05
6 *315:A1 *432:A2 3.73261e-06
7 *428:A1 *432:A2 0
8 *443:B1 *432:A2 7.72537e-06
9 *480:A3 *432:A2 2.9286e-05
10 *11:44 *432:A2 3.95236e-05
11 *11:48 *432:A2 0
12 *17:18 *432:A2 3.09143e-06
13 *20:10 *432:A2 5.94167e-07
14 *112:20 *432:A2 7.19036e-06
*RES
1 *431:ZN *432:A2 34.8929 
*END

*D_NET *128 0.00321122
*CONN
*I *512:A2 I *D NOR3_X1
*I *514:A2 I *D NOR3_X1
*I *513:A2 I *D NOR3_X1
*I *465:A I *D CLKBUF_X1
*I *501:A I *D CLKBUF_X1
*I *433:A I *D BUF_X1
*I *432:ZN O *D NAND2_X1
*CAP
1 *512:A2 0
2 *514:A2 0
3 *513:A2 6.68605e-05
4 *465:A 0
5 *501:A 0
6 *433:A 0
7 *432:ZN 0.000216748
8 *128:45 0.000114542
9 *128:39 0.000123679
10 *128:30 8.96665e-05
11 *128:19 0.000210003
12 *128:10 0.000413083
13 *513:A2 *513:A3 2.39679e-06
14 *513:A2 *514:A3 1.26998e-05
15 *513:A2 *159:32 0
16 *513:A2 *169:8 8.2465e-06
17 *128:10 *182:12 4.15278e-05
18 *128:10 *198:10 0.000116575
19 *128:10 *213:10 4.13453e-05
20 *128:10 *265:25 6.01288e-05
21 *128:19 *161:8 9.05847e-05
22 *128:19 *161:22 0.000379383
23 *128:19 *198:10 0.000768463
24 *128:19 *213:10 0.000134598
25 *128:19 *287:19 2.32887e-05
26 *128:30 *161:8 2.51997e-05
27 *128:30 *213:10 5.11191e-06
28 *128:30 *287:19 1.88334e-06
29 *128:30 *289:47 2.3767e-06
30 *128:39 *475:A3 1.65202e-06
31 *128:39 *156:14 4.12459e-06
32 *128:39 *184:16 3.36137e-05
33 *128:39 *202:8 4.30019e-05
34 *128:45 *495:A2 4.32144e-07
35 *128:45 *512:A3 1.76665e-06
36 *128:45 *156:14 8.43215e-07
37 *318:A *128:10 2.98187e-05
38 *467:A1 *128:39 0
39 *467:A1 *128:45 5.78279e-06
40 *21:73 *513:A2 0.000111114
41 *21:73 *128:45 2.39679e-06
42 *21:82 *128:39 2.39679e-06
43 *21:82 *128:45 2.58848e-05
*RES
1 *432:ZN *128:10 39.6072 
2 *128:10 *433:A 10 
3 *128:10 *128:19 45.0357 
4 *128:19 *501:A 10 
5 *128:19 *128:30 7.28572 
6 *128:30 *465:A 5 
7 *128:30 *128:39 11.1786 
8 *128:39 *128:45 5.92857 
9 *128:45 *513:A2 15.25 
10 *128:45 *514:A2 5 
11 *128:39 *512:A2 5 
*END

*D_NET *129 0.000581223
*CONN
*I *450:A I *D AOI211_X2
*I *444:A I *D AOI211_X1
*I *434:ZN O *D OAI21_X1
*CAP
1 *450:A 7.38962e-05
2 *444:A 0
3 *434:ZN 9.31079e-05
4 *129:8 0.000167004
5 *450:A *450:B 3.09143e-06
6 *450:A *450:C2 7.21602e-06
7 *450:A *228:27 1.0303e-05
8 *450:A *251:9 3.41458e-06
9 *450:A *268:39 0
10 *450:A *268:43 0
11 *129:8 *228:14 0.000110919
12 *129:8 *228:27 2.39679e-06
13 *129:8 *251:17 8.3442e-06
14 *422:A1 *450:A 2.39679e-06
15 *422:A1 *129:8 7.19036e-06
16 *422:A2 *129:8 5.71509e-05
17 *21:23 *450:A 1.19839e-05
18 *21:31 *450:A 1.62465e-05
19 *119:18 *129:8 6.56185e-06
*RES
1 *434:ZN *129:8 19.6786 
2 *129:8 *444:A 5 
3 *129:8 *450:A 14.2857 
*END

*D_NET *130 0.000100532
*CONN
*I *442:B1 I *D AOI21_X1
*I *435:ZN O *D INV_X1
*CAP
1 *442:B1 3.60828e-05
2 *435:ZN 3.60828e-05
3 *442:B1 *330:A1 0
4 *442:B1 *442:A 3.88456e-06
5 *442:B1 *442:B2 1.10821e-05
6 *442:B1 *239:43 1.34e-05
7 *377:A *442:B1 0
*RES
1 *435:ZN *442:B1 15.1071 
*END

*D_NET *131 8.73465e-05
*CONN
*I *441:A I *D OAI21_X1
*I *436:ZN O *D INV_X1
*CAP
1 *441:A 2.23363e-05
2 *436:ZN 2.23363e-05
3 *441:A *330:A3 1.44283e-05
4 *441:A *330:A4 7.19036e-06
5 *441:A *441:B1 7.19036e-06
6 *441:A *441:B2 1.38649e-05
*RES
1 *436:ZN *441:A 13.75 
*END

*D_NET *132 0.000311635
*CONN
*I *439:A I *D OAI21_X1
*I *437:ZN O *D AOI21_X1
*CAP
1 *439:A 9.90182e-05
2 *437:ZN 9.90182e-05
3 *439:A grant[51] 0
4 *439:A *370:A3 4.32144e-07
5 *439:A *373:A 2.52965e-06
6 *439:A *439:B1 1.32323e-05
7 *439:A *173:28 1.4479e-05
8 *373:C1 *439:A 2.40328e-05
9 *373:C2 *439:A 2.85072e-05
10 *375:B1 *439:A 3.65322e-06
11 *410:C1 *439:A 3.91113e-06
12 *437:B1 *439:A 2.28207e-05
*RES
1 *437:ZN *439:A 24.0357 
*END

*D_NET *133 0.000801952
*CONN
*I *439:B1 I *D OAI21_X1
*I *438:ZN O *D AOI21_X1
*CAP
1 *439:B1 0.000115227
2 *438:ZN 0.000115227
3 *439:B1 *338:A1 2.46838e-05
4 *439:B1 *277:49 0.000162891
5 *439:B1 *288:21 6.03486e-06
6 *372:B2 *439:B1 6.75896e-05
7 *373:C2 *439:B1 0.000228936
8 *375:B1 *439:B1 1.37673e-05
9 *410:C2 *439:B1 4.83646e-05
10 *439:A *439:B1 1.32323e-05
11 *39:8 *439:B1 5.99828e-06
*RES
1 *438:ZN *439:B1 41.3929 
*END

*D_NET *134 0.000400007
*CONN
*I *440:C2 I *D AOI221_X1
*I *439:ZN O *D OAI21_X1
*CAP
1 *440:C2 0.000127785
2 *439:ZN 0.000127785
3 *440:C2 *331:A1 7.19036e-06
4 *440:C2 *169:14 3.71657e-05
5 *440:C2 *204:18 0
6 *440:C2 *235:38 2.39679e-06
7 *440:C2 *296:13 0
8 *375:A *440:C2 7.72792e-06
9 *375:B1 *440:C2 4.73201e-05
10 *375:B2 *440:C2 2.4736e-05
11 *33:12 *440:C2 4.30918e-06
12 *36:14 *440:C2 5.52959e-06
13 *67:8 *440:C2 8.06191e-06
*RES
1 *439:ZN *440:C2 36.7857 
*END

*D_NET *135 0.000508715
*CONN
*I *441:B2 I *D OAI21_X1
*I *440:ZN O *D AOI221_X1
*CAP
1 *441:B2 0.00016504
2 *440:ZN 0.00016504
3 *441:B2 *330:A3 3.19164e-07
4 *441:B2 *376:A 2.65726e-05
5 *441:B2 *436:A 2.04038e-05
6 *441:B2 *441:B1 1.68643e-06
7 *441:B2 *442:B2 3.12595e-06
8 *441:B2 *263:45 2.50396e-05
9 *375:A *441:B2 6.534e-05
10 *376:B2 *441:B2 2.16443e-05
11 *377:B2 *441:B2 6.38328e-07
12 *441:A *441:B2 1.38649e-05
*RES
1 *440:ZN *441:B2 33.6429 
*END

*D_NET *136 0.000173504
*CONN
*I *442:B2 I *D AOI21_X1
*I *441:ZN O *D OAI21_X1
*CAP
1 *442:B2 7.05702e-05
2 *441:ZN 7.05702e-05
3 *442:B2 *377:B1 1.16156e-05
4 *442:B2 *441:B1 2.39679e-06
5 *442:B2 *239:43 0
6 *442:B2 *263:45 9.57492e-07
7 *376:B1 *442:B2 4.32144e-07
8 *377:A *442:B2 2.75346e-06
9 *377:B2 *442:B2 0
10 *441:B2 *442:B2 3.12595e-06
11 *442:B1 *442:B2 1.10821e-05
*RES
1 *441:ZN *442:B2 18.6429 
*END

*D_NET *137 0.00138807
*CONN
*I *443:B2 I *D OAI221_X1
*I *442:ZN O *D AOI21_X1
*CAP
1 *443:B2 7.39115e-06
2 *442:ZN 0.000247988
3 *137:10 0.000255379
4 *443:B2 *256:23 1.21774e-06
5 *443:B2 *256:27 3.09411e-06
6 *137:10 *377:B1 8.727e-07
7 *137:10 *164:8 0
8 *137:10 *238:21 0
9 *137:10 *238:23 0
10 *137:10 *238:25 0
11 *329:A1 *137:10 0.000117332
12 *364:A *137:10 1.72405e-05
13 *377:A *137:10 3.09411e-06
14 *378:A *137:10 6.73899e-05
15 *378:B2 *137:10 2.72847e-05
16 *407:A *137:10 0
17 *443:B1 *443:B2 2.39679e-06
18 *443:C1 *137:10 7.35912e-06
19 *30:10 *137:10 8.56923e-06
20 *31:19 *137:10 5.10087e-06
21 *77:10 *137:10 0.00060935
22 *110:18 *137:10 0
23 *111:18 *137:10 7.00661e-06
*RES
1 *442:ZN *137:10 49.6786 
2 *137:10 *443:B2 10.75 
*END

*D_NET *138 0.000960743
*CONN
*I *450:C2 I *D AOI211_X2
*I *444:C2 I *D AOI211_X1
*I *443:ZN O *D OAI221_X1
*CAP
1 *450:C2 4.69894e-05
2 *444:C2 0
3 *443:ZN 0.000225524
4 *138:12 0.000272514
5 *450:C2 *139:14 2.90353e-05
6 *450:C2 *159:8 7.93012e-05
7 *450:C2 *166:10 7.98429e-05
8 *450:C2 *251:9 1.80284e-05
9 *450:C2 *268:43 3.83453e-06
10 *138:12 *139:14 1.32338e-05
11 *138:12 *228:14 2.95203e-05
12 *138:12 *251:17 7.57563e-05
13 *138:12 *256:13 9.55926e-06
14 *138:12 *268:43 1.66148e-05
15 *443:C1 *138:12 1.11168e-06
16 *450:A *450:C2 7.21602e-06
17 *78:10 *138:12 0
18 *111:18 *138:12 5.26612e-05
*RES
1 *443:ZN *138:12 43.4643 
2 *138:12 *444:C2 5 
3 *138:12 *450:C2 23.8214 
*END

*D_NET *139 0.00271264
*CONN
*I *472:A3 I *D NAND3_X1
*I *445:A3 I *D NAND3_X1
*I *455:A3 I *D NAND3_X1
*I *463:A3 I *D NAND3_X1
*I *444:ZN O *D AOI211_X1
*CAP
1 *472:A3 6.67865e-05
2 *445:A3 3.43095e-05
3 *455:A3 0.000141235
4 *463:A3 0
5 *444:ZN 0.000110333
6 *139:31 0.000192725
7 *139:22 0.000280337
8 *139:14 0.000440276
9 *445:A3 *459:A3 6.0855e-05
10 *445:A3 *161:26 4.12796e-06
11 *445:A3 *183:18 7.40328e-06
12 *445:A3 *230:116 1.66988e-05
13 *455:A3 *459:A1 1.26995e-06
14 *455:A3 *459:A3 0.00022738
15 *455:A3 *146:8 1.98491e-05
16 *455:A3 *148:14 2.75346e-06
17 *455:A3 *161:44 8.67853e-05
18 *455:A3 *165:22 2.11458e-06
19 *455:A3 *190:22 7.27769e-05
20 *455:A3 *218:14 1.87637e-06
21 *455:A3 *230:116 4.24381e-05
22 *455:A3 *232:47 0
23 *455:A3 *268:29 6.45079e-06
24 *472:A3 *468:A3 0
25 *472:A3 *143:10 2.8283e-05
26 *472:A3 *143:12 6.71156e-06
27 *472:A3 *159:8 1.52307e-05
28 *472:A3 *227:14 2.35207e-05
29 *472:A3 *230:32 8.26038e-06
30 *139:14 *450:B 0.00010451
31 *139:14 *143:10 4.43526e-05
32 *139:14 *159:8 4.18286e-05
33 *139:14 *228:14 3.5628e-06
34 *139:14 *268:43 0
35 *139:22 *463:A2 2.39679e-06
36 *139:22 *150:12 1.19839e-05
37 *139:22 *183:18 8.09476e-05
38 *139:22 *227:14 1.18273e-05
39 *139:22 *229:8 1.19839e-05
40 *139:22 *229:66 9.50648e-05
41 *139:22 *251:9 0
42 *139:31 *463:A2 1.80284e-05
43 *139:31 *150:12 3.0904e-05
44 *139:31 *230:116 1.52724e-05
45 *445:A2 *445:A3 4.97191e-06
46 *450:C2 *139:14 2.90353e-05
47 *455:A2 *455:A3 3.07262e-06
48 *459:A2 *455:A3 7.16188e-07
49 *463:A1 *139:22 9.47968e-05
50 *21:31 *139:14 8.0521e-05
51 *22:80 *455:A3 5.3942e-05
52 *22:89 *445:A3 4.64017e-06
53 *121:12 *139:22 4.10201e-05
54 *126:59 *445:A3 1.32348e-05
55 *138:12 *139:14 1.32338e-05
*RES
1 *444:ZN *139:14 28.5357 
2 *139:14 *139:22 41.4286 
3 *139:22 *463:A3 5 
4 *139:22 *139:31 8.25 
5 *139:31 *455:A3 41.1843 
6 *139:31 *445:A3 15.3929 
7 *139:14 *472:A3 19.5714 
*END

*D_NET *140 0.0013173
*CONN
*I *446:A3 I *D NOR3_X1
*I *498:A3 I *D NOR3_X1
*I *482:A1 I *D NOR2_X1
*I *516:A2 I *D NOR2_X1
*I *445:ZN O *D NAND3_X1
*CAP
1 *446:A3 5.40194e-05
2 *498:A3 9.52478e-05
3 *482:A1 5.96311e-05
4 *516:A2 0
5 *445:ZN 7.70246e-05
6 *140:19 0.000184461
7 *140:10 0.000156205
8 *140:6 0.000257667
9 *446:A3 grant[25] 0
10 *446:A3 *452:A1 3.09411e-06
11 *446:A3 *452:A3 4.60047e-06
12 *446:A3 *144:35 3.23723e-07
13 *446:A3 *163:12 2.61469e-06
14 *446:A3 *231:64 1.73151e-05
15 *446:A3 *232:90 5.90251e-06
16 *482:A1 *482:A2 8.43215e-07
17 *482:A1 *500:A3 6.48216e-07
18 *482:A1 *516:A1 4.9678e-06
19 *482:A1 *518:A1 1.86809e-06
20 *482:A1 *518:A2 2.39679e-06
21 *482:A1 *144:37 2.33422e-06
22 *482:A1 *168:22 5.11574e-06
23 *482:A1 *205:12 1.68244e-05
24 *498:A3 *168:22 0.000110224
25 *498:A3 *184:18 0
26 *498:A3 *203:20 3.81309e-05
27 *498:A3 *237:23 0
28 *498:A3 *239:15 9.47025e-06
29 *140:6 grant[25] 0
30 *140:6 *144:6 1.88398e-05
31 *140:6 *183:18 2.16072e-07
32 *140:10 *452:A3 5.56848e-05
33 *140:10 *516:A1 9.1719e-06
34 *140:10 *184:18 0
35 *140:10 *239:15 1.85226e-05
36 *140:10 *275:27 9.04583e-05
37 *140:19 *516:A1 1.045e-05
38 *140:19 *184:18 0
39 *140:19 *239:15 1.80625e-06
40 *498:A1 *498:A3 1.21774e-06
*RES
1 *445:ZN *140:6 13.75 
2 *140:6 *140:10 19.5 
3 *140:10 *516:A2 10 
4 *140:10 *140:19 2.96429 
5 *140:19 *482:A1 16.9286 
6 *140:19 *498:A3 23.8929 
7 *140:6 *446:A3 10.75 
*END

*D_NET *141 0.00235048
*CONN
*I *448:A2 I *D NAND4_X1
*I *457:A2 I *D NAND4_X1
*I *466:A2 I *D NAND4_X1
*I *474:A2 I *D NAND4_X1
*I *450:B I *D AOI211_X2
*I *447:ZN O *D INV_X4
*CAP
1 *448:A2 0
2 *457:A2 9.93075e-05
3 *466:A2 0
4 *474:A2 0
5 *450:B 7.40677e-05
6 *447:ZN 0.000239057
7 *141:52 0.000168255
8 *141:41 0.000103593
9 *141:34 0.000199635
10 *450:B *143:10 4.16464e-05
11 *450:B *159:8 4.30433e-06
12 *450:B *228:29 3.93453e-05
13 *450:B *257:13 1.32594e-05
14 *450:B *268:39 1.91498e-06
15 *457:A2 *459:A3 4.88697e-05
16 *457:A2 *147:12 1.045e-05
17 *457:A2 *161:22 4.09449e-05
18 *457:A2 *195:10 1.50604e-05
19 *457:A2 *230:97 1.87701e-05
20 *141:34 *143:41 7.72792e-06
21 *141:34 *156:10 2.08098e-06
22 *141:34 *227:20 0.000142783
23 *141:34 *227:73 8.06366e-05
24 *141:34 *228:36 2.20086e-05
25 *141:34 *228:55 4.81297e-06
26 *141:34 *229:14 2.3905e-05
27 *141:34 *229:16 7.72792e-06
28 *141:41 *143:41 6.74149e-05
29 *141:41 *229:16 4.97191e-06
30 *141:41 *230:12 1.68643e-06
31 *141:41 *230:82 2.37026e-05
32 *141:52 *448:A1 9.0137e-05
33 *141:52 *142:8 5.64879e-06
34 *141:52 *143:41 0.000108208
35 *141:52 *195:10 3.68589e-05
36 *141:52 *230:82 2.25089e-06
37 *141:52 *230:97 8.35934e-06
38 *430:A *141:34 0.000142533
39 *450:A *450:B 3.09143e-06
40 *121:12 *450:B 0
41 *121:12 *141:34 2.04447e-05
42 *126:52 *457:A2 0.000320498
43 *139:14 *450:B 0.00010451
*RES
1 *447:ZN *450:B 31.5357 
2 *447:ZN *141:34 40.2857 
3 *141:34 *474:A2 5 
4 *141:34 *141:41 6.25 
5 *141:41 *466:A2 5 
6 *141:41 *141:52 17.5357 
7 *141:52 *457:A2 29.5714 
8 *141:52 *448:A2 10 
*END

*D_NET *142 0.00174693
*CONN
*I *499:A3 I *D NOR3_X1
*I *517:A2 I *D NOR2_X1
*I *483:A1 I *D NOR2_X1
*I *449:A3 I *D NOR3_X1
*I *448:ZN O *D NAND4_X1
*CAP
1 *499:A3 0.000192926
2 *517:A2 4.73976e-05
3 *483:A1 0
4 *449:A3 1.98169e-05
5 *448:ZN 1.69825e-05
6 *142:29 0.000103164
7 *142:18 0.000185739
8 *142:8 0.000320064
9 *449:A3 *449:A1 2.94435e-05
10 *449:A3 *162:70 1.87059e-05
11 *449:A3 *188:26 4.16195e-06
12 *499:A3 *499:A2 1.0303e-05
13 *499:A3 *500:A2 3.38454e-06
14 *499:A3 *500:A3 2.55331e-06
15 *499:A3 *168:22 6.82202e-07
16 *499:A3 *186:16 3.95387e-06
17 *499:A3 *187:30 2.84765e-06
18 *499:A3 *188:18 2.64016e-05
19 *499:A3 *189:20 8.46385e-05
20 *499:A3 *195:10 1.64422e-05
21 *499:A3 *211:14 3.3075e-06
22 *499:A3 *215:10 0
23 *499:A3 *267:13 1.8558e-06
24 *499:A3 *271:13 2.96381e-05
25 *517:A2 *482:A2 8.88337e-06
26 *517:A2 *517:A1 6.32461e-06
27 *517:A2 *518:A2 5.36311e-05
28 *517:A2 *160:34 1.68751e-05
29 *517:A2 *162:104 3.94781e-05
30 *517:A2 *231:98 0
31 *142:8 *143:41 1.14339e-05
32 *142:8 *187:30 2.08098e-06
33 *142:8 *195:10 4.16195e-06
34 *142:18 *143:41 1.26998e-05
35 *142:18 *187:30 2.37137e-05
36 *142:18 *187:34 0.000164818
37 *142:18 *187:38 1.26998e-05
38 *142:18 *188:18 0.000141468
39 *142:18 *188:26 2.55325e-05
40 *142:18 *277:23 1.90208e-06
41 *142:29 *160:34 3.02372e-05
42 *142:29 *162:70 4.11749e-05
43 *142:29 *162:104 2.69048e-06
44 *142:29 *188:26 1.42629e-06
45 *142:29 *189:22 1.21652e-05
46 *451:A1 *142:18 3.46864e-06
47 *141:52 *142:8 5.64879e-06
*RES
1 *448:ZN *142:8 12.2857 
2 *142:8 *142:18 30.4286 
3 *142:18 *449:A3 12.9643 
4 *142:18 *142:29 7.03572 
5 *142:29 *483:A1 10 
6 *142:29 *517:A2 17.0357 
7 *142:8 *499:A3 38.1314 
*END

*D_NET *143 0.00259106
*CONN
*I *468:A3 I *D NAND3_X1
*I *451:A3 I *D NAND3_X1
*I *459:A3 I *D NAND3_X1
*I *476:A3 I *D NAND3_X1
*I *450:ZN O *D AOI211_X2
*CAP
1 *468:A3 5.35695e-05
2 *451:A3 1.86257e-05
3 *459:A3 0.0001525
4 *476:A3 0
5 *450:ZN 9.77903e-05
6 *143:41 0.000430745
7 *143:12 0.000287998
8 *143:10 0.000179739
9 *459:A3 *459:A1 5.34003e-05
10 *459:A3 *147:12 1.63596e-05
11 *459:A3 *161:44 3.0667e-06
12 *459:A3 *230:97 3.43375e-05
13 *459:A3 *232:32 2.66773e-05
14 *468:A3 *470:A1 1.67775e-05
15 *468:A3 *470:A4 2.39679e-06
16 *468:A3 *227:14 0
17 *468:A3 *230:38 6.54468e-05
18 *143:10 *159:8 3.01738e-06
19 *143:10 *257:13 5.83716e-05
20 *143:12 *472:A1 1.21774e-06
21 *143:12 *476:A2 4.79358e-06
22 *143:12 *230:32 6.85774e-07
23 *143:12 *230:38 3.55823e-05
24 *143:41 *448:A1 4.97191e-06
25 *143:41 *472:A1 1.87369e-06
26 *143:41 *476:A1 1.68643e-06
27 *143:41 *476:A2 2.39679e-06
28 *143:41 *478:A1 2.86239e-05
29 *143:41 *478:A3 3.48132e-06
30 *143:41 *187:30 8.53583e-05
31 *143:41 *216:18 0
32 *143:41 *227:84 1.6345e-05
33 *143:41 *227:91 5.91545e-05
34 *143:41 *229:16 9.98572e-06
35 *143:41 *229:37 9.41418e-05
36 *143:41 *230:24 6.33768e-07
37 *143:41 *230:97 5.97339e-06
38 *143:41 *277:29 1.87637e-06
39 *445:A1 *451:A3 7.21335e-06
40 *445:A3 *459:A3 6.0855e-05
41 *450:B *143:10 4.16464e-05
42 *451:A1 *451:A3 4.6837e-06
43 *451:A1 *143:41 2.39679e-06
44 *451:A2 *451:A3 7.19036e-06
45 *451:A2 *459:A3 8.58925e-06
46 *451:A2 *143:41 3.01743e-06
47 *455:A3 *459:A3 0.00022738
48 *457:A2 *459:A3 4.88697e-05
49 *459:A2 *459:A3 2.61448e-05
50 *472:A3 *468:A3 0
51 *472:A3 *143:10 2.8283e-05
52 *472:A3 *143:12 6.71156e-06
53 *22:80 *459:A3 2.25996e-06
54 *22:89 *459:A3 1.61002e-06
55 *22:89 *143:41 2.76824e-06
56 *121:58 *143:41 0
57 *139:14 *143:10 4.43526e-05
58 *141:34 *143:41 7.72792e-06
59 *141:41 *143:41 6.74149e-05
60 *141:52 *143:41 0.000108208
61 *142:8 *143:41 1.14339e-05
62 *142:18 *143:41 1.26998e-05
*RES
1 *450:ZN *143:10 30.1786 
2 *143:10 *143:12 4.25 
3 *143:12 *476:A3 5 
4 *143:12 *143:41 44.4286 
5 *143:41 *459:A3 35.5714 
6 *143:41 *451:A3 12.5 
7 *143:10 *468:A3 12.1786 
*END

*D_NET *144 0.00157078
*CONN
*I *500:A3 I *D NOR3_X1
*I *518:A2 I *D NOR2_X1
*I *484:A1 I *D NOR2_X1
*I *452:A3 I *D NOR3_X1
*I *451:ZN O *D NAND3_X1
*CAP
1 *500:A3 0.000116312
2 *518:A2 2.94789e-05
3 *484:A1 0
4 *452:A3 8.08055e-05
5 *451:ZN 6.72197e-05
6 *144:37 4.94688e-05
7 *144:35 0.000233017
8 *144:6 0.00024474
9 *452:A3 grant[25] 2.54588e-05
10 *452:A3 *452:A1 1.21774e-06
11 *452:A3 *184:18 0
12 *452:A3 *232:90 1.44866e-05
13 *452:A3 *239:15 1.94663e-05
14 *452:A3 *239:19 3.98013e-05
15 *500:A3 *500:A2 7.72792e-06
16 *500:A3 *516:A1 1.26998e-05
17 *500:A3 *525:A1 4.71831e-05
18 *500:A3 *162:78 3.16452e-06
19 *500:A3 *168:22 0
20 *500:A3 *190:14 7.19036e-06
21 *500:A3 *205:12 1.8031e-05
22 *518:A2 *482:A2 2.43213e-05
23 *518:A2 *484:A2 1.68643e-06
24 *518:A2 *518:A1 8.43215e-07
25 *518:A2 *189:22 7.13503e-06
26 *144:6 *187:34 4.22528e-05
27 *144:35 *449:A2 1.72426e-05
28 *144:35 *162:70 5.18308e-05
29 *144:35 *162:78 1.82602e-05
30 *144:35 *162:104 7.77345e-06
31 *144:35 *163:12 0.000221222
32 *144:35 *187:34 1.17135e-05
33 *144:37 *482:A2 2.39679e-06
34 *144:37 *484:A2 8.43215e-07
35 *144:37 *160:23 0
36 *144:37 *162:78 2.52965e-06
37 *144:37 *205:12 2.25089e-06
38 *446:A3 *452:A3 4.60047e-06
39 *446:A3 *144:35 3.23723e-07
40 *482:A1 *500:A3 6.48216e-07
41 *482:A1 *518:A2 2.39679e-06
42 *482:A1 *144:37 2.33422e-06
43 *499:A3 *500:A3 2.55331e-06
44 *517:A2 *518:A2 5.36311e-05
45 *140:6 *144:6 1.88398e-05
46 *140:10 *452:A3 5.56848e-05
*RES
1 *451:ZN *144:6 14.25 
2 *144:6 *452:A3 26.6786 
3 *144:6 *144:35 25.0357 
4 *144:35 *144:37 2.25 
5 *144:37 *484:A1 5 
6 *144:37 *518:A2 19.4643 
7 *144:35 *500:A3 19.6786 
*END

*D_NET *145 0.0013317
*CONN
*I *454:A3 I *D NOR3_X1
*I *519:A2 I *D NOR2_X1
*I *485:A1 I *D NOR2_X1
*I *502:A3 I *D NOR3_X1
*I *453:ZN O *D NAND4_X1
*CAP
1 *454:A3 0
2 *519:A2 0
3 *485:A1 7.33727e-06
4 *502:A3 6.63115e-05
5 *453:ZN 9.89288e-05
6 *145:24 0.000136445
7 *145:18 0.000125689
8 *145:12 0.000161822
9 *485:A1 *485:A2 2.52965e-06
10 *502:A3 *485:A2 2.72899e-05
11 *502:A3 *489:A1 7.19036e-06
12 *502:A3 *502:A2 1.25189e-05
13 *502:A3 *173:14 2.04312e-06
14 *502:A3 *209:10 0
15 *502:A3 *222:12 7.72243e-06
16 *502:A3 *228:67 8.06325e-05
17 *502:A3 *258:13 0
18 *145:12 *454:A1 5.6511e-06
19 *145:12 *454:A2 2.29579e-06
20 *145:12 *166:20 3.40142e-05
21 *145:12 *226:8 0
22 *145:12 *226:14 0
23 *145:12 *232:8 3.09143e-06
24 *145:12 *232:23 5.90251e-06
25 *145:12 *232:32 8.43215e-07
26 *145:12 *268:39 1.09525e-06
27 *145:18 *454:A2 4.18985e-05
28 *145:18 *149:10 5.48953e-05
29 *145:18 *149:12 0.000206087
30 *145:18 *226:14 5.73809e-05
31 *145:18 *288:15 5.46453e-05
32 *145:24 *485:A2 0
33 *145:24 *523:A1 2.75346e-06
34 *145:24 *523:A2 6.85774e-07
35 *145:24 *162:10 8.93158e-06
36 *145:24 *162:16 2.39679e-06
37 *145:24 *173:14 0
38 *145:24 *209:8 7.72792e-06
39 *145:24 *228:67 6.47253e-05
40 *318:A *145:12 0
41 *430:A *145:12 3.01743e-06
42 *453:A3 *145:12 1.11168e-06
43 *22:12 *502:A3 7.66675e-07
44 *22:12 *145:24 1.49198e-05
45 *126:10 *145:12 7.65033e-06
46 *126:97 *145:12 1.27537e-05
*RES
1 *453:ZN *145:12 25.6071 
2 *145:12 *145:18 23.8214 
3 *145:18 *145:24 13.8929 
4 *145:24 *502:A3 19.5714 
5 *145:24 *485:A1 10.75 
6 *145:18 *519:A2 5 
7 *145:12 *454:A3 5 
*END

*D_NET *146 0.00108233
*CONN
*I *456:A3 I *D NOR3_X1
*I *520:A2 I *D NOR2_X1
*I *486:A1 I *D NOR2_X1
*I *503:A3 I *D NOR3_X1
*I *455:ZN O *D NAND3_X1
*CAP
1 *456:A3 4.33206e-05
2 *520:A2 0
3 *486:A1 3.79362e-06
4 *503:A3 4.26565e-05
5 *455:ZN 7.22087e-05
6 *146:31 4.62765e-05
7 *146:12 0.000126382
8 *146:8 0.000156772
9 *456:A3 *456:A2 1.67775e-05
10 *456:A3 *460:A1 4.21607e-06
11 *456:A3 *232:47 1.57439e-05
12 *456:A3 *268:29 9.14816e-06
13 *486:A1 *192:12 1.76665e-06
14 *503:A3 *503:A2 2.75346e-06
15 *503:A3 *148:20 2.94455e-05
16 *503:A3 *182:12 1.16371e-05
17 *503:A3 *182:16 1.57341e-06
18 *503:A3 *192:12 4.5028e-05
19 *503:A3 *239:19 2.89018e-05
20 *503:A3 *265:25 8.98274e-07
21 *146:8 *148:14 2.56731e-05
22 *146:8 *232:47 7.95596e-06
23 *146:8 *268:29 8.28657e-05
24 *146:12 *148:14 2.76411e-07
25 *146:12 *148:20 7.50554e-05
26 *146:12 *230:118 0
27 *146:12 *239:19 0.000127444
28 *146:31 *166:26 3.67311e-05
29 *146:31 *192:12 3.46581e-05
30 *146:31 *265:25 1.25215e-05
31 *455:A2 *146:8 0
32 *455:A3 *146:8 1.98491e-05
*RES
1 *455:ZN *146:8 15.8571 
2 *146:8 *146:12 12.0357 
3 *146:12 *503:A3 16.8571 
4 *146:12 *146:31 11.4286 
5 *146:31 *486:A1 5.92857 
6 *146:31 *520:A2 5 
7 *146:8 *456:A3 10.25 
*END

*D_NET *147 0.00106582
*CONN
*I *458:A3 I *D NOR3_X1
*I *504:A3 I *D NOR3_X1
*I *521:A2 I *D NOR2_X1
*I *487:A1 I *D NOR2_X1
*I *457:ZN O *D NAND4_X1
*CAP
1 *458:A3 5.04059e-06
2 *504:A3 6.07073e-06
3 *521:A2 0
4 *487:A1 7.92103e-06
5 *457:ZN 8.06174e-05
6 *147:22 3.74683e-05
7 *147:16 0.000133765
8 *147:12 0.000183805
9 *458:A3 *166:26 1.17844e-05
10 *458:A3 *231:14 1.41812e-05
11 *487:A1 *191:14 2.72171e-06
12 *504:A3 *504:A2 5.50692e-06
13 *504:A3 *521:A1 1.32348e-05
14 *504:A3 *161:56 7.72792e-06
15 *147:12 *459:A1 5.31461e-05
16 *147:12 *166:26 2.42461e-05
17 *147:12 *195:10 1.11209e-05
18 *147:12 *231:14 2.37137e-05
19 *147:16 *521:A1 0.000101834
20 *147:16 *161:44 2.86208e-05
21 *147:16 *161:46 0.000177973
22 *147:16 *161:50 5.46432e-05
23 *147:16 *195:10 0
24 *147:16 *211:12 2.08098e-06
25 *147:22 *521:A1 1.72426e-05
26 *147:22 *178:6 6.0887e-06
27 *147:22 *191:14 1.52083e-06
28 *147:22 *211:12 2.84765e-06
29 *147:22 *222:16 1.26998e-05
30 *457:A2 *147:12 1.045e-05
31 *459:A2 *147:12 5.70492e-06
32 *459:A3 *147:12 1.63596e-05
33 *22:80 *147:12 0
34 *22:80 *147:16 1.86987e-06
35 *126:52 *147:12 3.81093e-06
*RES
1 *457:ZN *147:12 25.6429 
2 *147:12 *147:16 20.8571 
3 *147:16 *147:22 8.53572 
4 *147:22 *487:A1 15.9286 
5 *147:22 *521:A2 5 
6 *147:16 *504:A3 11.25 
7 *147:12 *458:A3 6.25 
*END

*D_NET *148 0.00108255
*CONN
*I *460:A3 I *D NOR3_X1
*I *522:A2 I *D NOR2_X1
*I *488:A1 I *D NOR2_X1
*I *505:A3 I *D NOR3_X1
*I *459:ZN O *D NAND3_X1
*CAP
1 *460:A3 3.83957e-05
2 *522:A2 0
3 *488:A1 0
4 *505:A3 8.41353e-05
5 *459:ZN 7.21671e-05
6 *148:22 9.16754e-05
7 *148:20 0.000121305
8 *148:14 0.000224327
9 *460:A3 *460:A2 1.74934e-05
10 *460:A3 *231:27 4.21607e-06
11 *460:A3 *232:47 2.10705e-05
12 *460:A3 *265:9 4.28905e-05
13 *505:A3 *488:A2 1.21774e-06
14 *505:A3 *505:A2 2.39679e-06
15 *505:A3 *162:42 8.85557e-06
16 *505:A3 *193:14 3.97872e-05
17 *505:A3 *194:8 1.27662e-05
18 *505:A3 *222:16 0
19 *148:14 *218:14 1.73125e-05
20 *148:14 *230:118 8.50869e-06
21 *148:14 *231:27 1.28334e-05
22 *148:14 *232:47 7.04654e-05
23 *148:20 *230:118 0
24 *148:20 *239:19 5.51337e-05
25 *455:A3 *148:14 2.75346e-06
26 *503:A3 *148:20 2.94455e-05
27 *22:41 *505:A3 2.39679e-06
28 *146:8 *148:14 2.56731e-05
29 *146:12 *148:14 2.76411e-07
30 *146:12 *148:20 7.50554e-05
*RES
1 *459:ZN *148:14 25.6071 
2 *148:14 *148:20 23.8214 
3 *148:20 *148:22 0.928572 
4 *148:22 *505:A3 16.4286 
5 *148:22 *488:A1 5 
6 *148:20 *522:A2 5 
7 *148:14 *460:A3 10.75 
*END

*D_NET *149 0.00112205
*CONN
*I *462:A3 I *D NOR3_X1
*I *523:A2 I *D NOR2_X1
*I *506:A3 I *D NOR3_X1
*I *489:A1 I *D NOR2_X1
*I *461:ZN O *D NAND4_X1
*CAP
1 *462:A3 5.79e-06
2 *523:A2 7.92822e-06
3 *506:A3 5.17015e-06
4 *489:A1 2.25725e-05
5 *461:ZN 6.89001e-05
6 *149:14 4.22569e-05
7 *149:12 0.000102801
8 *149:10 0.000155049
9 *462:A3 *462:A2 2.39679e-06
10 *462:A3 *166:24 7.19036e-06
11 *462:A3 *232:23 1.68643e-06
12 *489:A1 *485:A2 3.09143e-06
13 *489:A1 *502:A2 4.24423e-05
14 *489:A1 *160:97 8.43215e-07
15 *489:A1 *209:10 9.24246e-06
16 *506:A3 *502:A2 7.19036e-06
17 *506:A3 *222:12 7.19036e-06
18 *523:A2 *523:A1 1.21774e-06
19 *149:10 *454:A1 3.43414e-06
20 *149:10 *454:A2 4.80378e-06
21 *149:10 *165:20 4.02344e-05
22 *149:10 *166:20 6.28503e-05
23 *149:10 *226:14 1.28391e-06
24 *149:10 *227:33 4.02344e-05
25 *149:12 *166:20 1.72426e-05
26 *149:12 *209:10 1.87905e-05
27 *149:12 *288:15 1.43544e-05
28 *149:14 *502:A2 1.2453e-05
29 *149:14 *209:10 1.43544e-05
30 *149:14 *288:15 9.24246e-06
31 *339:A1 *489:A1 4.16485e-05
32 *502:A3 *489:A1 7.19036e-06
33 *22:12 *523:A2 2.52965e-06
34 *22:12 *149:12 8.88136e-06
35 *22:16 *489:A1 2.4656e-05
36 *22:16 *149:14 2.89018e-05
37 *22:41 *523:A2 8.43215e-07
38 *126:35 *149:10 1.34929e-05
39 *145:18 *149:10 5.48953e-05
40 *145:18 *149:12 0.000206087
41 *145:24 *523:A2 6.85774e-07
*RES
1 *461:ZN *149:10 20.7857 
2 *149:10 *149:12 13.1429 
3 *149:12 *149:14 2.96429 
4 *149:14 *489:A1 14.3929 
5 *149:14 *506:A3 10.75 
6 *149:12 *523:A2 10.75 
7 *149:10 *462:A3 10.75 
*END

*D_NET *150 0.000804349
*CONN
*I *507:A3 I *D NOR3_X1
*I *464:A3 I *D NOR3_X1
*I *490:A1 I *D NOR2_X1
*I *524:A2 I *D NOR2_X1
*I *463:ZN O *D NAND3_X1
*CAP
1 *507:A3 0
2 *464:A3 0
3 *490:A1 8.71307e-06
4 *524:A2 0
5 *463:ZN 5.92189e-05
6 *150:33 3.57599e-05
7 *150:18 0.000156849
8 *150:12 0.000189021
9 *150:12 *507:A2 7.19036e-06
10 *150:12 *161:22 2.16072e-07
11 *150:12 *195:10 2.94455e-05
12 *150:12 *215:10 1.62643e-06
13 *150:12 *230:116 5.05929e-06
14 *150:12 *251:9 0
15 *150:18 grant[25] 1.43238e-06
16 *150:18 *162:70 1.32323e-05
17 *150:18 *183:18 0
18 *150:18 *183:20 5.80925e-05
19 *150:18 *230:116 7.11385e-05
20 *150:18 *232:90 3.73261e-06
21 *150:18 *251:9 0
22 *150:33 *464:A2 2.39679e-06
23 *150:33 *160:68 1.40196e-06
24 *150:33 *160:74 2.16072e-07
25 *150:33 *162:64 5.33077e-05
26 *150:33 *174:18 5.41015e-05
27 *150:33 *183:20 4.32144e-07
28 *150:33 *225:8 7.19036e-06
29 *150:33 *232:80 1.68643e-06
30 *139:22 *150:12 1.19839e-05
31 *139:31 *150:12 3.0904e-05
*RES
1 *463:ZN *150:12 22.3571 
2 *150:12 *150:18 17.6071 
3 *150:18 *524:A2 5 
4 *150:18 *150:33 14.4643 
5 *150:33 *490:A1 5.92857 
6 *150:33 *464:A3 5 
7 *150:12 *507:A3 5 
*END

*D_NET *151 0.00262017
*CONN
*I *499:A2 I *D NOR3_X1
*I *500:A2 I *D NOR3_X1
*I *498:A2 I *D NOR3_X1
*I *467:A2 I *D NOR3_X1
*I *475:A2 I *D NOR3_X1
*I *477:A2 I *D NOR3_X1
*I *473:A2 I *D NOR3_X1
*I *469:A2 I *D NOR3_X1
*I *471:A2 I *D NOR3_X1
*I *479:A2 I *D NOR3_X1
*I *465:Z O *D CLKBUF_X1
*CAP
1 *499:A2 1.25093e-05
2 *500:A2 3.44479e-05
3 *498:A2 0
4 *467:A2 0
5 *475:A2 2.83366e-05
6 *477:A2 0
7 *473:A2 1.35083e-05
8 *469:A2 0
9 *471:A2 3.08992e-05
10 *479:A2 4.38974e-06
11 *465:Z 3.90554e-05
12 *151:112 7.9862e-05
13 *151:101 0.000129769
14 *151:49 0.000110056
15 *151:39 0.000120439
16 *151:33 0.000140617
17 *151:31 0.000173806
18 *151:18 0.000108407
19 *151:12 9.38605e-05
20 *151:10 0.00015839
21 *471:A2 *164:8 0.000171399
22 *473:A2 *473:A3 2.75346e-06
23 *473:A2 *509:A2 7.04991e-07
24 *473:A2 *511:A2 2.77917e-07
25 *473:A2 *168:10 8.762e-07
26 *475:A2 *475:A3 2.75346e-06
27 *479:A2 *495:A2 1.43238e-06
28 *479:A2 *158:14 1.21774e-06
29 *499:A2 *168:22 3.09411e-06
30 *500:A2 *211:14 4.27165e-06
31 *151:10 *213:10 0.000105045
32 *151:10 *237:23 1.07633e-05
33 *151:12 *467:A3 1.78819e-05
34 *151:12 *184:16 0
35 *151:12 *198:8 6.37281e-06
36 *151:12 *237:23 4.9678e-06
37 *151:18 *467:A3 2.75346e-06
38 *151:18 *479:A3 1.18547e-06
39 *151:18 *495:A2 1.66809e-05
40 *151:18 *289:47 2.57689e-05
41 *151:31 *514:A3 3.01743e-06
42 *151:31 *261:9 4.36e-05
43 *151:33 *477:A3 5.23993e-05
44 *151:33 *203:14 2.33537e-05
45 *151:33 *259:9 0
46 *151:39 *477:A3 2.75346e-06
47 *151:39 *166:10 4.61648e-06
48 *151:39 *168:10 3.98918e-06
49 *151:39 *260:15 4.52612e-06
50 *151:49 *473:A3 7.66675e-07
51 *151:49 *509:A3 3.83453e-06
52 *151:49 *153:30 1.62116e-05
53 *151:49 *166:10 3.33203e-06
54 *151:49 *168:10 1.45367e-06
55 *151:49 *199:14 1.76665e-06
56 *151:101 *168:22 1.81923e-05
57 *151:101 *198:8 6.93298e-06
58 *151:101 *203:18 2.84765e-06
59 *151:101 *211:14 1.20751e-06
60 *151:101 *237:23 5.23703e-05
61 *151:101 *289:47 8.64288e-07
62 *151:112 *211:14 5.00632e-06
63 *467:A1 *479:A2 7.72537e-06
64 *467:A1 *151:12 2.75346e-06
65 *467:A1 *151:18 0.00011136
66 *469:A1 *151:49 7.19036e-06
67 *475:A1 *475:A2 4.41389e-05
68 *475:A1 *151:31 2.96955e-05
69 *475:A1 *151:33 7.19036e-06
70 *477:A1 *151:33 2.75346e-06
71 *477:A1 *151:39 3.98394e-05
72 *498:A1 *151:101 2.44308e-05
73 *498:A1 *151:112 1.24004e-05
74 *499:A1 *499:A2 2.57512e-06
75 *499:A3 *499:A2 1.0303e-05
76 *499:A3 *500:A2 3.38454e-06
77 *500:A3 *500:A2 7.72792e-06
78 *20:49 *471:A2 1.72405e-05
79 *20:60 *471:A2 0.000151248
80 *20:75 *473:A2 7.72792e-06
81 *20:75 *151:39 6.85774e-07
82 *20:75 *151:49 3.25884e-05
83 *20:101 *151:33 4.96524e-05
84 *20:105 *151:31 7.85075e-05
85 *21:53 *473:A2 1.43238e-06
86 *21:53 *151:49 1.62142e-05
87 *21:82 *475:A2 7.24915e-06
88 *21:82 *151:33 4.32144e-07
89 *22:89 *500:A2 1.62696e-05
90 *22:93 *500:A2 1.1366e-05
91 *22:93 *151:112 4.48859e-06
*RES
1 *465:Z *151:10 20.6786 
2 *151:10 *151:12 3.25 
3 *151:12 *151:18 11.6071 
4 *151:18 *479:A2 5.75 
5 *151:18 *151:31 16.3571 
6 *151:31 *151:33 16.25 
7 *151:33 *151:39 9.25 
8 *151:39 *151:49 16.3214 
9 *151:49 *471:A2 24.0714 
10 *151:49 *469:A2 5 
11 *151:39 *473:A2 11.7857 
12 *151:33 *477:A2 5 
13 *151:31 *475:A2 9.25 
14 *151:12 *467:A2 5 
15 *151:10 *151:101 18.3571 
16 *151:101 *498:A2 10 
17 *151:101 *151:112 3.71429 
18 *151:112 *500:A2 13.7143 
19 *151:112 *499:A2 11.75 
*END

*D_NET *152 0.000698191
*CONN
*I *467:A3 I *D NOR3_X1
*I *508:A3 I *D NOR3_X1
*I *525:A2 I *D NOR2_X1
*I *491:A1 I *D NOR2_X1
*I *466:ZN O *D NAND4_X1
*CAP
1 *467:A3 3.11135e-05
2 *508:A3 7.73319e-06
3 *525:A2 8.71307e-06
4 *491:A1 0
5 *466:ZN 4.19375e-05
6 *152:26 9.14392e-05
7 *152:12 3.75152e-05
8 *152:8 0.000123332
9 *467:A3 *198:8 2.39679e-06
10 *467:A3 *226:8 6.20652e-06
11 *467:A3 *237:23 5.18445e-05
12 *467:A3 *289:47 1.24387e-05
13 *508:A3 *161:114 1.78819e-05
14 *508:A3 *161:118 2.75346e-06
15 *508:A3 *168:18 2.06353e-05
16 *152:8 *448:A1 1.52083e-06
17 *152:8 *187:30 4.23873e-05
18 *152:8 *226:8 2.70766e-05
19 *152:8 *277:33 1.77822e-05
20 *152:12 *525:A1 2.16072e-07
21 *152:12 *200:10 2.56243e-06
22 *152:12 *275:27 1.19839e-05
23 *152:12 *275:29 8.24917e-06
24 *152:26 *187:30 3.08901e-05
25 *152:26 *226:8 2.5638e-05
26 *152:26 *237:23 5.33077e-05
27 *151:12 *467:A3 1.78819e-05
28 *151:18 *467:A3 2.75346e-06
*RES
1 *466:ZN *152:8 17.0357 
2 *152:8 *152:12 8.25 
3 *152:12 *491:A1 5 
4 *152:12 *525:A2 5.92857 
5 *152:8 *152:26 7.71429 
6 *152:26 *508:A3 11.75 
7 *152:26 *467:A3 14.7143 
*END

*D_NET *153 0.00101195
*CONN
*I *469:A3 I *D NOR3_X1
*I *492:A1 I *D NOR2_X1
*I *509:A3 I *D NOR3_X1
*I *526:A2 I *D NOR2_X1
*I *468:ZN O *D NAND3_X1
*CAP
1 *469:A3 8.71307e-06
2 *492:A1 0
3 *509:A3 1.34296e-05
4 *526:A2 4.25322e-05
5 *468:ZN 0
6 *153:30 4.23886e-05
7 *153:19 0.000127228
8 *153:4 0.000122655
9 *469:A3 *199:14 0
10 *509:A3 *492:A2 2.466e-05
11 *509:A3 *509:A2 2.39679e-06
12 *526:A2 *527:A2 1.08036e-06
13 *526:A2 *154:8 2.29666e-06
14 *526:A2 *216:16 1.73151e-05
15 *526:A2 *217:12 1.26998e-05
16 *153:19 *217:12 0.000332544
17 *153:19 *237:29 0.000193502
18 *153:30 *492:A2 1.09661e-05
19 *153:30 *181:12 7.72537e-06
20 *153:30 *201:10 0
21 *11:6 *526:A2 2.16072e-07
22 *11:87 *526:A2 2.51631e-06
23 *21:46 *153:19 2.70375e-05
24 *151:49 *509:A3 3.83453e-06
25 *151:49 *153:30 1.62116e-05
*RES
1 *468:ZN *153:4 5 
2 *153:4 *526:A2 9.67857 
3 *153:4 *153:19 27.8929 
4 *153:19 *509:A3 7.25 
5 *153:19 *153:30 4.67857 
6 *153:30 *492:A1 5 
7 *153:30 *469:A3 5.92857 
*END

*D_NET *154 0.000886878
*CONN
*I *471:A3 I *D NOR3_X1
*I *510:A3 I *D NOR3_X1
*I *493:A1 I *D NOR2_X1
*I *527:A2 I *D NOR2_X1
*I *470:ZN O *D NAND4_X1
*CAP
1 *471:A3 2.59042e-05
2 *510:A3 4.82408e-05
3 *493:A1 9.86846e-06
4 *527:A2 1.4253e-05
5 *470:ZN 3.85675e-05
6 *154:30 7.93011e-05
7 *154:19 4.3797e-05
8 *154:8 8.1593e-05
9 *471:A3 *165:8 2.16072e-07
10 *471:A3 *181:12 7.94184e-05
11 *471:A3 *287:21 1.32279e-05
12 *493:A1 *275:29 1.32279e-05
13 *493:A1 *287:21 0
14 *510:A3 *510:A2 2.39679e-06
15 *510:A3 *275:29 6.89714e-06
16 *510:A3 *287:21 0
17 *527:A2 *227:10 0
18 *154:8 *470:A1 1.18547e-06
19 *154:8 *217:12 5.52959e-06
20 *154:8 *227:10 0
21 *154:19 *181:12 0.000142693
22 *154:30 *181:12 2.96955e-05
23 *471:A1 *471:A3 3.09143e-06
24 *526:A2 *527:A2 1.08036e-06
25 *526:A2 *154:8 2.29666e-06
26 *11:87 *154:8 0
27 *20:49 *471:A3 7.51705e-05
28 *20:49 *154:19 0.000143485
29 *20:49 *154:30 2.57414e-05
*RES
1 *470:ZN *154:8 9.17857 
2 *154:8 *527:A2 6.25 
3 *154:8 *154:19 12.7143 
4 *154:19 *493:A1 11.25 
5 *154:19 *154:30 1.60714 
6 *154:30 *510:A3 14.75 
7 *154:30 *471:A3 15.5714 
*END

*D_NET *155 0.00107557
*CONN
*I *494:A1 I *D NOR2_X1
*I *473:A3 I *D NOR3_X1
*I *511:A3 I *D NOR3_X1
*I *528:A2 I *D NOR2_X1
*I *472:ZN O *D NAND3_X1
*CAP
1 *494:A1 5.77154e-06
2 *473:A3 2.42698e-05
3 *511:A3 4.84904e-06
4 *528:A2 0
5 *472:ZN 1.61129e-05
6 *155:25 7.73014e-05
7 *155:17 0.0001546
8 *155:8 0.000116759
9 *473:A3 *511:A2 1.08199e-05
10 *473:A3 *161:131 2.69048e-06
11 *473:A3 *166:10 1.60377e-06
12 *473:A3 *168:10 5.48953e-05
13 *494:A1 *157:34 1.27467e-05
14 *494:A1 *183:10 7.66675e-07
15 *511:A3 *496:A1 3.65322e-06
16 *155:8 *476:A1 4.16464e-05
17 *155:8 *157:8 1.77822e-05
18 *155:8 *219:8 9.91569e-06
19 *155:8 *230:32 2.94435e-05
20 *155:8 *257:13 4.62991e-06
21 *155:17 *157:8 3.76506e-05
22 *155:17 *157:19 0.000265477
23 *155:17 *157:34 1.72405e-05
24 *155:17 *183:10 4.67471e-05
25 *155:17 *219:8 6.99525e-06
26 *155:25 *496:A1 4.21424e-05
27 *155:25 *159:30 3.56012e-06
28 *155:25 *159:32 8.43215e-07
29 *155:25 *201:10 5.24701e-07
30 *473:A2 *473:A3 2.75346e-06
31 *529:A1 *155:17 4.11048e-05
32 *20:101 *473:A3 6.82202e-07
33 *21:53 *473:A3 1.21774e-06
34 *21:53 *511:A3 1.21774e-06
35 *21:66 *473:A3 3.09143e-06
36 *21:66 *511:A3 1.87369e-06
37 *21:66 *155:25 1.14272e-05
38 *151:49 *473:A3 7.66675e-07
*RES
1 *472:ZN *155:8 13.6429 
2 *155:8 *528:A2 10 
3 *155:8 *155:17 17.2143 
4 *155:17 *155:25 11.4286 
5 *155:25 *511:A3 5.75 
6 *155:25 *473:A3 18.7143 
7 *155:17 *494:A1 10.9286 
*END

*D_NET *156 0.000716265
*CONN
*I *475:A3 I *D NOR3_X1
*I *512:A3 I *D NOR3_X1
*I *495:A1 I *D NOR2_X1
*I *474:ZN O *D NAND4_X1
*CAP
1 *475:A3 4.37984e-05
2 *512:A3 8.15016e-06
3 *495:A1 0
4 *474:ZN 0.00023902
5 *156:14 1.86579e-05
6 *156:10 0.000293326
7 *475:A3 *167:6 2.16072e-07
8 *475:A3 *202:8 2.39679e-06
9 *475:A3 *203:14 1.59582e-06
10 *475:A3 *297:16 1.43538e-06
11 *156:10 *160:14 2.13496e-05
12 *156:10 *226:8 0
13 *156:10 *227:73 3.34324e-06
14 *156:10 *229:14 1.52083e-06
15 *156:10 *297:16 1.388e-05
16 *156:14 *495:A2 2.39679e-06
17 *467:A1 *156:14 1.28122e-06
18 *475:A2 *475:A3 2.75346e-06
19 *508:A1 *475:A3 1.33704e-05
20 *508:A1 *156:10 3.6463e-05
21 *21:82 *475:A3 8.43215e-07
22 *128:39 *475:A3 1.65202e-06
23 *128:39 *156:14 4.12459e-06
24 *128:45 *512:A3 1.76665e-06
25 *128:45 *156:14 8.43215e-07
26 *141:34 *156:10 2.08098e-06
*RES
1 *474:ZN *156:10 34.0714 
2 *156:10 *156:14 6.25 
3 *156:14 *495:A1 5 
4 *156:14 *512:A3 5.92857 
5 *156:10 *475:A3 14.8929 
*END

*D_NET *157 0.00124476
*CONN
*I *477:A3 I *D NOR3_X1
*I *513:A3 I *D NOR3_X1
*I *496:A1 I *D NOR2_X1
*I *529:A2 I *D NOR2_X1
*I *476:ZN O *D NAND3_X1
*CAP
1 *477:A3 4.36662e-05
2 *513:A3 6.50469e-06
3 *496:A1 3.8896e-05
4 *529:A2 6.03184e-06
5 *476:ZN 1.45202e-05
6 *157:34 6.95033e-05
7 *157:19 0.000148378
8 *157:8 0.000110702
9 *477:A3 *203:10 5.56936e-06
10 *477:A3 *257:11 6.36399e-05
11 *496:A1 *494:A2 0
12 *496:A1 *159:23 2.75346e-06
13 *496:A1 *159:30 5.01808e-05
14 *496:A1 *257:11 1.11168e-06
15 *529:A2 *216:16 7.19036e-06
16 *157:8 *257:13 1.22474e-05
17 *157:19 *257:13 4.65748e-05
18 *157:34 *257:11 3.61426e-05
19 *157:34 *257:13 5.28158e-06
20 *477:A1 *477:A3 2.75346e-06
21 *494:A1 *157:34 1.27467e-05
22 *511:A3 *496:A1 3.65322e-06
23 *513:A2 *513:A3 2.39679e-06
24 *529:A1 *529:A2 2.39679e-06
25 *11:87 *529:A2 7.19036e-06
26 *20:101 *477:A3 5.51527e-05
27 *21:66 *477:A3 3.02372e-05
28 *21:66 *513:A3 7.19036e-06
29 *21:66 *157:34 1.66988e-05
30 *151:33 *477:A3 5.23993e-05
31 *151:39 *477:A3 2.75346e-06
32 *155:8 *157:8 1.77822e-05
33 *155:17 *157:8 3.76506e-05
34 *155:17 *157:19 0.000265477
35 *155:17 *157:34 1.72405e-05
36 *155:25 *496:A1 4.21424e-05
*RES
1 *476:ZN *157:8 12.9643 
2 *157:8 *529:A2 10.75 
3 *157:8 *157:19 14.5 
4 *157:19 *496:A1 16.4286 
5 *157:19 *157:34 3.64286 
6 *157:34 *513:A3 10.75 
7 *157:34 *477:A3 18.8929 
*END

*D_NET *158 0.000671475
*CONN
*I *514:A3 I *D NOR3_X1
*I *479:A3 I *D NOR3_X1
*I *497:A1 I *D NOR2_X1
*I *478:ZN O *D NAND4_X1
*CAP
1 *514:A3 2.86844e-05
2 *479:A3 8.12034e-06
3 *497:A1 0
4 *478:ZN 0.000131559
5 *158:14 1.66459e-05
6 *158:10 0.000168769
7 *514:A3 *169:8 2.39679e-06
8 *514:A3 *204:10 1.41532e-05
9 *514:A3 *261:9 4.04742e-06
10 *158:10 *481:A 5.62375e-05
11 *158:10 *187:14 9.05513e-05
12 *158:10 *204:10 9.95102e-05
13 *158:10 *229:37 1.88334e-06
14 *158:10 *261:9 2.9824e-06
15 *158:14 *495:A2 2.75346e-06
16 *158:14 *159:32 1.37673e-05
17 *467:A1 *514:A3 8.43215e-07
18 *479:A2 *158:14 1.21774e-06
19 *513:A2 *514:A3 1.26998e-05
20 *20:105 *514:A3 1.045e-05
21 *151:18 *479:A3 1.18547e-06
22 *151:31 *514:A3 3.01743e-06
*RES
1 *478:ZN *158:10 30 
2 *158:10 *158:14 6.25 
3 *158:14 *497:A1 5 
4 *158:14 *479:A3 5.92857 
5 *158:10 *514:A3 14.8929 
*END

*D_NET *159 0.00306927
*CONN
*I *492:A2 I *D NOR2_X1
*I *494:A2 I *D NOR2_X1
*I *495:A2 I *D NOR2_X1
*I *497:A2 I *D NOR2_X1
*I *481:A I *D CLKBUF_X1
*I *496:A2 I *D NOR2_X1
*I *493:A2 I *D NOR2_X1
*I *480:ZN O *D NAND3_X1
*CAP
1 *492:A2 7.77002e-05
2 *494:A2 8.71307e-06
3 *495:A2 6.39027e-05
4 *497:A2 0
5 *481:A 0.000158555
6 *496:A2 0
7 *493:A2 5.85972e-05
8 *480:ZN 0.000225885
9 *159:34 0.000166705
10 *159:32 0.000153787
11 *159:30 0.00012625
12 *159:23 5.16231e-05
13 *159:19 0.000174084
14 *159:8 0.000365045
15 *481:A *478:A1 3.31199e-05
16 *481:A *216:18 7.34989e-06
17 *481:A *227:84 1.87418e-05
18 *481:A *227:91 2.75346e-06
19 *481:A *261:9 5.55992e-05
20 *492:A2 *509:A2 4.9678e-06
21 *492:A2 *161:131 4.43868e-06
22 *492:A2 *166:10 9.55059e-06
23 *492:A2 *181:12 7.72537e-06
24 *492:A2 *186:10 1.72426e-05
25 *492:A2 *201:10 1.74934e-05
26 *492:A2 *289:51 1.0236e-05
27 *493:A2 *216:16 6.37271e-05
28 *493:A2 *275:29 8.96548e-05
29 *495:A2 *289:47 3.36575e-05
30 *495:A2 *289:51 3.46864e-06
31 *495:A2 *297:16 1.36901e-05
32 *159:8 *166:10 0.000175713
33 *159:8 *201:12 1.66996e-05
34 *159:8 *257:13 0
35 *159:19 *510:A2 2.50977e-05
36 *159:19 *166:10 8.09112e-05
37 *159:19 *186:10 9.20998e-05
38 *159:19 *221:16 0
39 *159:23 *201:10 4.32144e-07
40 *159:23 *289:51 6.46697e-06
41 *159:30 *289:51 2.32377e-05
42 *159:32 *169:8 0
43 *159:32 *289:51 4.42234e-05
44 *159:34 *289:47 1.76665e-06
45 *450:B *159:8 4.30433e-06
46 *450:C2 *159:8 7.93012e-05
47 *467:A1 *495:A2 2.41487e-06
48 *472:A3 *159:8 1.52307e-05
49 *479:A2 *495:A2 1.43238e-06
50 *496:A1 *494:A2 0
51 *496:A1 *159:23 2.75346e-06
52 *496:A1 *159:30 5.01808e-05
53 *508:A1 *495:A2 6.70962e-05
54 *509:A3 *492:A2 2.466e-05
55 *513:A2 *159:32 0
56 *11:6 *493:A2 7.16188e-07
57 *11:35 *159:8 2.06764e-05
58 *11:87 *493:A2 2.91089e-06
59 *20:10 *159:8 4.29819e-05
60 *20:27 *159:8 0.000102624
61 *21:31 *159:8 8.59171e-06
62 *21:53 *159:23 0
63 *128:45 *495:A2 4.32144e-07
64 *139:14 *159:8 4.18286e-05
65 *143:10 *159:8 3.01738e-06
66 *151:18 *495:A2 1.66809e-05
67 *153:30 *492:A2 1.09661e-05
68 *155:25 *159:30 3.56012e-06
69 *155:25 *159:32 8.43215e-07
70 *156:14 *495:A2 2.39679e-06
71 *158:10 *481:A 5.62375e-05
72 *158:14 *495:A2 2.75346e-06
73 *158:14 *159:32 1.37673e-05
*RES
1 *480:ZN *159:8 46.2143 
2 *159:8 *493:A2 18.75 
3 *159:8 *159:19 12.4643 
4 *159:19 *159:23 6.75 
5 *159:23 *496:A2 5 
6 *159:23 *159:30 5.75 
7 *159:30 *159:32 10.25 
8 *159:32 *159:34 0.928572 
9 *159:34 *481:A 35.6072 
10 *159:34 *497:A2 5 
11 *159:32 *495:A2 24.5714 
12 *159:30 *494:A2 5.92857 
13 *159:19 *492:A2 20.3571 
*END

*D_NET *160 0.00471923
*CONN
*I *490:A2 I *D NOR2_X1
*I *486:A2 I *D NOR2_X1
*I *487:A2 I *D NOR2_X1
*I *489:A2 I *D NOR2_X1
*I *485:A2 I *D NOR2_X1
*I *488:A2 I *D NOR2_X1
*I *482:A2 I *D NOR2_X1
*I *484:A2 I *D NOR2_X1
*I *483:A2 I *D NOR2_X1
*I *491:A2 I *D NOR2_X1
*I *481:Z O *D CLKBUF_X1
*CAP
1 *490:A2 0
2 *486:A2 5.17015e-06
3 *487:A2 0
4 *489:A2 0
5 *485:A2 8.04764e-05
6 *488:A2 8.76455e-06
7 *482:A2 3.29609e-05
8 *484:A2 6.37279e-06
9 *483:A2 0
10 *491:A2 0
11 *481:Z 8.0092e-05
12 *160:97 0.000153649
13 *160:95 0.00016329
14 *160:80 0.00019244
15 *160:74 0.000195537
16 *160:68 0.000265474
17 *160:34 5.25208e-05
18 *160:30 0.000186041
19 *160:23 0.000159756
20 *160:14 0.00023566
21 *482:A2 *189:22 1.34028e-05
22 *485:A2 *173:14 2.68096e-05
23 *485:A2 *222:12 1.74934e-05
24 *485:A2 *228:67 9.05228e-06
25 *485:A2 *258:13 7.34989e-06
26 *486:A2 *182:16 7.19036e-06
27 *486:A2 *192:12 7.19036e-06
28 *488:A2 grant[5] 1.87369e-06
29 *488:A2 *162:53 0
30 *488:A2 *193:14 7.72537e-06
31 *488:A2 *193:16 7.19036e-06
32 *160:14 *216:18 3.53273e-05
33 *160:14 *226:8 2.90163e-06
34 *160:14 *275:27 4.2963e-06
35 *160:14 *275:29 7.85466e-05
36 *160:23 *525:A1 9.62051e-07
37 *160:23 *162:78 1.28122e-06
38 *160:23 *171:8 1.08036e-06
39 *160:23 *195:14 0.00021679
40 *160:23 *200:16 1.79884e-05
41 *160:23 *216:18 9.01846e-07
42 *160:23 *275:27 0.000219636
43 *160:30 *195:14 2.25089e-06
44 *160:34 *189:22 8.12076e-06
45 *160:68 index[5] 6.13123e-06
46 *160:68 *172:8 3.51536e-06
47 *160:68 *174:16 4.83839e-05
48 *160:68 *179:6 2.85072e-05
49 *160:68 *189:22 2.3416e-05
50 *160:68 *195:14 1.49912e-05
51 *160:68 *231:98 0.000153313
52 *160:68 *232:80 0
53 *160:68 *251:5 0
54 *160:68 *269:9 0.000405468
55 *160:74 *162:53 6.68482e-05
56 *160:74 *162:64 0.0002354
57 *160:74 *171:12 6.37208e-06
58 *160:74 *175:10 9.24246e-06
59 *160:74 *231:27 1.32805e-05
60 *160:74 *231:38 2.80478e-06
61 *160:74 *231:49 4.71885e-05
62 *160:74 *232:55 5.37387e-05
63 *160:80 grant[5] 1.78038e-05
64 *160:80 *162:53 0.000128111
65 *160:80 *171:12 1.41981e-05
66 *160:80 *171:16 9.15329e-06
67 *160:80 *175:10 1.45805e-05
68 *160:80 *193:16 4.43172e-05
69 *160:80 *227:52 2.16263e-05
70 *160:95 *178:6 0.000119809
71 *160:95 *193:14 1.66988e-05
72 *160:95 *196:16 0.000117593
73 *160:95 *226:22 4.11048e-05
74 *160:95 *230:118 0
75 *160:95 *239:23 0.000116702
76 *160:97 *178:6 0.000143979
77 *160:97 *191:14 4.32144e-07
78 *160:97 *196:16 0.000128169
79 *160:97 *226:22 8.43376e-06
80 *160:97 *258:13 3.23723e-07
81 *482:A1 *482:A2 8.43215e-07
82 *485:A1 *485:A2 2.52965e-06
83 *489:A1 *485:A2 3.09143e-06
84 *489:A1 *160:97 8.43215e-07
85 *502:A3 *485:A2 2.72899e-05
86 *505:A3 *488:A2 1.21774e-06
87 *517:A2 *482:A2 8.88337e-06
88 *517:A2 *160:34 1.68751e-05
89 *518:A2 *482:A2 2.43213e-05
90 *518:A2 *484:A2 1.68643e-06
91 *142:29 *160:34 3.02372e-05
92 *144:37 *482:A2 2.39679e-06
93 *144:37 *484:A2 8.43215e-07
94 *144:37 *160:23 0
95 *145:24 *485:A2 0
96 *150:33 *160:68 1.40196e-06
97 *150:33 *160:74 2.16072e-07
98 *156:10 *160:14 2.13496e-05
*RES
1 *481:Z *160:14 27.1429 
2 *160:14 *491:A2 5 
3 *160:14 *160:23 26.6786 
4 *160:23 *483:A2 5 
5 *160:23 *160:30 0.75 
6 *160:30 *160:34 7.28572 
7 *160:34 *484:A2 10.75 
8 *160:34 *482:A2 14.5357 
9 *160:30 *160:68 39.9643 
10 *160:68 *160:74 22.2857 
11 *160:74 *160:80 19.6786 
12 *160:80 *488:A2 6.25 
13 *160:80 *160:95 27.6071 
14 *160:95 *160:97 14.75 
15 *160:97 *485:A2 26 
16 *160:97 *489:A2 5 
17 *160:95 *487:A2 5 
18 *160:74 *486:A2 10.75 
19 *160:68 *490:A2 5 
*END

*D_NET *161 0.00531825
*CONN
*I *508:A2 I *D NOR3_X1
*I *511:A2 I *D NOR3_X1
*I *509:A2 I *D NOR3_X1
*I *510:A2 I *D NOR3_X1
*I *507:A2 I *D NOR3_X1
*I *503:A2 I *D NOR3_X1
*I *505:A2 I *D NOR3_X1
*I *504:A2 I *D NOR3_X1
*I *506:A2 I *D NOR3_X1
*I *502:A2 I *D NOR3_X1
*I *501:Z O *D CLKBUF_X1
*CAP
1 *508:A2 0
2 *511:A2 8.06666e-06
3 *509:A2 3.74535e-05
4 *510:A2 9.99264e-05
5 *507:A2 6.02881e-06
6 *503:A2 4.39241e-05
7 *505:A2 7.23448e-06
8 *504:A2 3.78189e-06
9 *506:A2 0
10 *502:A2 2.91726e-05
11 *501:Z 2.65428e-05
12 *161:131 7.66633e-05
13 *161:118 0.000265366
14 *161:114 0.000158866
15 *161:56 0.000118905
16 *161:50 0.000107383
17 *161:46 5.48765e-05
18 *161:44 0.000261288
19 *161:26 0.000196606
20 *161:22 0.000172791
21 *161:8 0.000216917
22 *502:A2 *209:10 5.59765e-05
23 *502:A2 *222:12 5.90251e-06
24 *503:A2 *182:12 9.26487e-06
25 *503:A2 *265:25 1.68643e-06
26 *505:A2 *162:42 4.32144e-07
27 *505:A2 *194:8 8.43215e-07
28 *507:A2 *183:18 4.32144e-07
29 *509:A2 *166:10 1.02762e-05
30 *509:A2 *201:10 1.25215e-05
31 *510:A2 *168:10 3.38132e-06
32 *510:A2 *186:10 5.53846e-05
33 *510:A2 *200:10 1.07788e-05
34 *510:A2 *221:16 0
35 *510:A2 *275:29 4.80114e-06
36 *510:A2 *287:21 1.28122e-06
37 *161:8 *213:10 0.000111339
38 *161:22 *463:A2 7.72537e-06
39 *161:22 *183:18 6.28538e-05
40 *161:22 *213:10 0.000379129
41 *161:22 *230:97 4.04032e-05
42 *161:22 *230:116 2.2287e-05
43 *161:26 *230:116 1.2453e-05
44 *161:44 *224:14 5.3779e-09
45 *161:44 *230:116 4.24423e-05
46 *161:44 *268:29 4.91569e-06
47 *161:50 *211:12 5.10087e-06
48 *161:56 *521:A1 4.32144e-07
49 *161:56 *222:12 5.45271e-05
50 *161:56 *222:16 1.91498e-06
51 *161:114 *168:18 9.93293e-06
52 *161:114 *289:47 4.27236e-05
53 *161:118 *165:8 6.74733e-06
54 *161:118 *168:18 0.000253984
55 *161:118 *289:47 1.48039e-05
56 *161:118 *289:51 0.000181625
57 *161:131 *166:10 2.40955e-06
58 *161:131 *168:10 1.26129e-05
59 *161:131 *186:10 4.89223e-05
60 *445:A3 *161:26 4.12796e-06
61 *455:A3 *161:44 8.67853e-05
62 *457:A2 *161:22 4.09449e-05
63 *459:A3 *161:44 3.0667e-06
64 *473:A2 *509:A2 7.04991e-07
65 *473:A2 *511:A2 2.77917e-07
66 *473:A3 *511:A2 1.08199e-05
67 *473:A3 *161:131 2.69048e-06
68 *489:A1 *502:A2 4.24423e-05
69 *492:A2 *509:A2 4.9678e-06
70 *492:A2 *161:131 4.43868e-06
71 *502:A3 *502:A2 1.25189e-05
72 *503:A1 *503:A2 6.06596e-05
73 *503:A3 *503:A2 2.75346e-06
74 *504:A1 *161:56 1.76665e-06
75 *504:A3 *504:A2 5.50692e-06
76 *504:A3 *161:56 7.72792e-06
77 *505:A3 *505:A2 2.39679e-06
78 *506:A3 *502:A2 7.19036e-06
79 *508:A1 *161:118 5.91545e-05
80 *508:A3 *161:114 1.78819e-05
81 *508:A3 *161:118 2.75346e-06
82 *509:A3 *509:A2 2.39679e-06
83 *510:A3 *510:A2 2.39679e-06
84 *21:53 *509:A2 2.77965e-05
85 *22:12 *502:A2 1.19839e-05
86 *22:12 *161:56 2.39679e-06
87 *22:41 *504:A2 3.09411e-06
88 *22:41 *505:A2 1.68643e-06
89 *22:41 *161:56 0.000145388
90 *22:52 *161:46 1.72426e-05
91 *22:52 *161:50 2.96955e-05
92 *22:61 *161:44 1.72426e-05
93 *22:61 *161:46 0.000164437
94 *22:80 *161:26 1.72426e-05
95 *22:80 *161:44 0.000258338
96 *22:89 *161:26 1.2453e-05
97 *121:51 *161:22 2.54859e-05
98 *126:59 *161:22 1.19839e-05
99 *128:19 *161:8 9.05847e-05
100 *128:19 *161:22 0.000379383
101 *128:30 *161:8 2.51997e-05
102 *147:16 *161:44 2.86208e-05
103 *147:16 *161:46 0.000177973
104 *147:16 *161:50 5.46432e-05
105 *149:14 *502:A2 1.2453e-05
106 *150:12 *507:A2 7.19036e-06
107 *150:12 *161:22 2.16072e-07
108 *159:19 *510:A2 2.50977e-05
*RES
1 *501:Z *161:8 16.3571 
2 *161:8 *161:22 48.3929 
3 *161:22 *161:26 6.60714 
4 *161:26 *161:44 35.3029 
5 *161:44 *161:46 9.75 
6 *161:46 *161:50 7.96429 
7 *161:50 *161:56 15.4286 
8 *161:56 *502:A2 20.4643 
9 *161:56 *506:A2 5 
10 *161:50 *504:A2 5.75 
11 *161:46 *505:A2 10.75 
12 *161:44 *503:A2 16.25 
13 *161:26 *507:A2 10.75 
14 *161:8 *161:114 9.25 
15 *161:114 *161:118 31.25 
16 *161:118 *510:A2 21.2857 
17 *161:118 *161:131 4.67857 
18 *161:131 *509:A2 15.0714 
19 *161:131 *511:A2 11.3214 
20 *161:114 *508:A2 5 
*END

*D_NET *162 0.00410141
*CONN
*I *519:A1 I *D NOR2_X1
*I *524:A1 I *D NOR2_X1
*I *517:A1 I *D NOR2_X1
*I *518:A1 I *D NOR2_X1
*I *516:A1 I *D NOR2_X1
*I *525:A1 I *D NOR2_X1
*I *520:A1 I *D NOR2_X1
*I *522:A1 I *D NOR2_X1
*I *521:A1 I *D NOR2_X1
*I *523:A1 I *D NOR2_X1
*I *515:Z O *D CLKBUF_X1
*CAP
1 *519:A1 0
2 *524:A1 0
3 *517:A1 2.25364e-05
4 *518:A1 1.05729e-05
5 *516:A1 2.69921e-05
6 *525:A1 0.000175383
7 *520:A1 0
8 *522:A1 0
9 *521:A1 5.55567e-05
10 *523:A1 1.82535e-05
11 *515:Z 9.00856e-05
12 *162:104 7.09096e-05
13 *162:78 0.000243359
14 *162:70 0.000201829
15 *162:64 0.000219916
16 *162:53 0.000181238
17 *162:42 0.000173361
18 *162:27 0.000243477
19 *162:16 0.000142028
20 *162:10 0.000114935
21 *516:A1 *239:15 5.3396e-05
22 *517:A1 *168:22 1.32348e-05
23 *517:A1 *205:12 3.71164e-05
24 *517:A1 *206:10 1.32348e-05
25 *517:A1 *231:98 0
26 *518:A1 *168:22 4.9678e-06
27 *521:A1 *195:10 0
28 *521:A1 *222:16 1.85634e-05
29 *525:A1 *180:12 2.1755e-05
30 *525:A1 *186:16 0
31 *525:A1 *189:20 0
32 *525:A1 *190:14 1.74934e-05
33 *525:A1 *200:10 1.19839e-05
34 *525:A1 *215:8 7.19036e-06
35 *525:A1 *275:27 1.96107e-05
36 *162:10 *209:8 3.09411e-06
37 *162:10 *269:13 3.70111e-05
38 *162:16 *288:9 6.48216e-07
39 *162:27 grant[41] 2.08907e-05
40 *162:27 *195:8 1.30903e-05
41 *162:27 *213:8 8.90245e-06
42 *162:27 *288:9 5.43947e-06
43 *162:42 grant[41] 2.51696e-05
44 *162:42 *194:8 6.0838e-05
45 *162:53 grant[41] 1.1982e-05
46 *162:53 *193:16 3.23723e-07
47 *162:53 *212:12 5.03617e-05
48 *162:53 *227:52 0.000190463
49 *162:64 *174:18 5.49101e-05
50 *162:64 *227:52 0.000150804
51 *162:64 *231:49 1.1429e-05
52 *162:64 *231:60 1.25784e-05
53 *162:70 *449:A1 3.98918e-06
54 *162:70 *449:A2 5.48953e-05
55 *162:70 *452:A2 1.62382e-06
56 *162:70 *183:20 1.26998e-05
57 *162:70 *189:22 1.83514e-06
58 *162:70 *231:60 0.000101255
59 *162:70 *232:94 5.27516e-05
60 *162:78 *171:8 1.19839e-05
61 *162:104 *163:12 3.691e-06
62 *162:104 *205:12 5.39708e-05
63 *449:A3 *162:70 1.87059e-05
64 *482:A1 *516:A1 4.9678e-06
65 *482:A1 *518:A1 1.86809e-06
66 *488:A2 *162:53 0
67 *500:A3 *516:A1 1.26998e-05
68 *500:A3 *525:A1 4.71831e-05
69 *500:A3 *162:78 3.16452e-06
70 *504:A3 *521:A1 1.32348e-05
71 *505:A2 *162:42 4.32144e-07
72 *505:A3 *162:42 8.85557e-06
73 *517:A2 *517:A1 6.32461e-06
74 *517:A2 *162:104 3.94781e-05
75 *518:A2 *518:A1 8.43215e-07
76 *523:A2 *523:A1 1.21774e-06
77 *22:41 *162:27 0
78 *140:10 *516:A1 9.1719e-06
79 *140:19 *516:A1 1.045e-05
80 *142:29 *162:70 4.11749e-05
81 *142:29 *162:104 2.69048e-06
82 *144:35 *162:70 5.18308e-05
83 *144:35 *162:78 1.82602e-05
84 *144:35 *162:104 7.77345e-06
85 *144:37 *162:78 2.52965e-06
86 *145:24 *523:A1 2.75346e-06
87 *145:24 *162:10 8.93158e-06
88 *145:24 *162:16 2.39679e-06
89 *147:16 *521:A1 0.000101834
90 *147:22 *521:A1 1.72426e-05
91 *150:18 *162:70 1.32323e-05
92 *150:33 *162:64 5.33077e-05
93 *152:12 *525:A1 2.16072e-07
94 *160:23 *525:A1 9.62051e-07
95 *160:23 *162:78 1.28122e-06
96 *160:74 *162:53 6.68482e-05
97 *160:74 *162:64 0.0002354
98 *160:80 *162:53 0.000128111
99 *161:56 *521:A1 4.32144e-07
*RES
1 *515:Z *162:10 15.6071 
2 *162:10 *162:16 3.10714 
3 *162:16 *523:A1 7.17857 
4 *162:16 *162:27 12.25 
5 *162:27 *521:A1 23.1071 
6 *162:27 *162:42 11.75 
7 *162:42 *522:A1 5 
8 *162:42 *162:53 21.1786 
9 *162:53 *520:A1 10 
10 *162:53 *162:64 24.25 
11 *162:64 *162:70 23.3572 
12 *162:70 *162:78 10.0357 
13 *162:78 *525:A1 27.4286 
14 *162:78 *516:A1 19.2143 
15 *162:70 *162:104 6.46429 
16 *162:104 *518:A1 11.25 
17 *162:104 *517:A1 13.5357 
18 *162:64 *524:A1 5 
19 *162:10 *519:A1 5 
*END

*D_NET *163 0.0029068
*CONN
*P grant[0] O
*I *446:ZN O *D NOR3_X1
*CAP
1 grant[0] 0.000358629
2 *446:ZN 0.000257029
3 *163:16 0.000727889
4 *163:12 0.000626289
5 grant[0] *296:5 0.000233421
6 *163:12 *449:A2 6.6576e-06
7 *163:12 *171:12 0.000188998
8 *163:12 *186:26 2.35129e-05
9 *163:12 *187:34 4.6613e-07
10 *163:12 *205:12 1.58552e-05
11 *163:12 *208:10 0.000129288
12 *163:12 *231:64 2.52965e-06
13 *163:12 *239:11 4.64167e-06
14 *163:12 *239:15 5.98442e-05
15 *163:12 *289:33 9.77674e-06
16 *163:16 *231:98 0
17 *163:16 *239:11 3.44452e-05
18 *446:A3 *163:12 2.61469e-06
19 *144:35 *163:12 0.000221222
20 *162:104 *163:12 3.691e-06
*RES
1 *446:ZN *163:12 46.8393 
2 *163:12 *163:16 40.875 
3 *163:16 grant[0] 48.0357 
*END

*D_NET *164 0.00564724
*CONN
*P grant[10] O
*I *469:ZN O *D NOR3_X1
*CAP
1 grant[10] 0.000269328
2 *469:ZN 0
3 *164:18 0.000284607
4 *164:12 0.000347619
5 *164:10 0.00033234
6 *164:8 0.000632119
7 *164:6 0.000632119
8 grant[10] *250:5 0.000239578
9 grant[10] *250:19 3.93351e-06
10 grant[10] *270:13 4.6613e-07
11 grant[10] *290:13 0.000534789
12 grant[10] *294:11 7.85867e-06
13 *164:8 *182:10 1.71822e-05
14 *164:8 *237:29 0
15 *164:8 *256:13 0.000187926
16 *164:8 *256:23 1.24505e-05
17 *164:12 *246:13 2.87704e-06
18 *164:12 *270:13 0.000655011
19 *164:12 *282:17 0.00025249
20 *164:12 *290:13 1.32323e-05
21 *164:12 *290:23 8.10333e-05
22 *164:18 *230:118 0
23 *164:18 *239:23 9.77674e-06
24 *378:B2 *164:8 5.20238e-07
25 *411:B *164:12 7.72537e-06
26 *411:C1 *164:12 1.76613e-06
27 *425:A *164:8 1.89131e-06
28 *471:A2 *164:8 0.000171399
29 *11:12 *164:8 3.8984e-05
30 *11:16 *164:8 0.000542909
31 *20:49 *164:8 6.99047e-05
32 *20:60 *164:8 5.11191e-06
33 *20:75 *164:8 5.11191e-06
34 *30:10 *164:8 0
35 *30:25 *164:8 0
36 *31:8 *164:8 2.66691e-06
37 *31:19 *164:8 1.74328e-06
38 *110:18 *164:8 0.000205296
39 *110:18 *164:12 3.80828e-05
40 *111:18 *164:8 3.73887e-05
41 *137:10 *164:8 0
*RES
1 *469:ZN *164:6 10 
2 *164:6 *164:8 91.8572 
3 *164:8 *164:10 5 
4 *164:10 *164:12 61.25 
5 *164:12 *164:18 11.6071 
6 *164:18 grant[10] 51.5357 
*END

*D_NET *165 0.00396244
*CONN
*P grant[11] O
*I *471:ZN O *D NOR3_X1
*CAP
1 grant[11] 2.43162e-05
2 *471:ZN 0.000141586
3 *165:22 0.000383574
4 *165:20 0.000552661
5 *165:12 0.000504491
6 *165:8 0.000452673
7 grant[11] grant[13] 2.05033e-06
8 grant[11] grant[36] 2.60945e-06
9 grant[11] *179:16 1.55619e-05
10 *165:8 *168:18 9.2277e-05
11 *165:8 *186:16 4.67557e-05
12 *165:8 *237:27 8.58671e-06
13 *165:8 *287:21 2.55787e-06
14 *165:8 *289:51 1.51125e-05
15 *165:12 *169:10 3.35711e-05
16 *165:12 *183:10 5.68549e-05
17 *165:12 *219:8 9.76118e-06
18 *165:20 *453:A2 3.23723e-07
19 *165:20 *461:A2 7.19036e-06
20 *165:20 *461:A3 8.92081e-05
21 *165:20 *227:26 1.30565e-05
22 *165:20 *227:33 1.55356e-05
23 *165:20 *229:79 6.97169e-05
24 *165:20 *229:90 7.29164e-07
25 *165:20 *251:9 0
26 *165:20 *268:39 1.75631e-05
27 *165:22 grant[13] 0.000333149
28 *165:22 grant[14] 0.000441687
29 *165:22 *455:A1 2.87403e-05
30 *165:22 *207:8 2.33422e-06
31 *165:22 *227:33 7.19036e-06
32 *165:22 *227:50 0.000203823
33 *165:22 *229:79 1.68643e-06
34 *165:22 *229:90 1.37504e-05
35 *165:22 *251:5 7.93135e-06
36 *165:22 *268:29 0.000215299
37 *455:A3 *165:22 2.11458e-06
38 *471:A3 *165:8 2.16072e-07
39 *21:23 *165:12 1.39316e-05
40 *126:35 *165:20 8.52832e-05
41 *149:10 *165:20 4.02344e-05
42 *161:118 *165:8 6.74733e-06
*RES
1 *471:ZN *165:8 28.75 
2 *165:8 *165:12 39.8572 
3 *165:12 *165:20 27.8572 
4 *165:20 *165:22 66.75 
5 *165:22 grant[11] 12.8214 
*END

*D_NET *166 0.0045538
*CONN
*P grant[12] O
*I *473:ZN O *D NOR3_X1
*CAP
1 grant[12] 3.79861e-05
2 *473:ZN 9.43146e-06
3 *166:26 0.000483593
4 *166:24 0.000533594
5 *166:20 0.000291687
6 *166:10 0.000439209
7 *166:8 0.000244941
8 grant[12] grant[36] 2.05033e-06
9 grant[12] *179:16 2.48069e-05
10 grant[12] *268:15 3.6039e-06
11 *166:8 *259:9 0
12 *166:10 *201:12 0.000812444
13 *166:10 *260:15 3.18553e-05
14 *166:20 *454:A1 4.90889e-05
15 *166:20 *228:67 0
16 *166:20 *268:39 0.00024824
17 *166:20 *268:43 3.46864e-06
18 *166:24 *462:A2 2.25089e-06
19 *166:24 *231:14 4.6098e-05
20 *166:24 *231:119 2.27781e-05
21 *166:24 *232:23 4.32144e-07
22 *166:24 *265:25 4.21371e-05
23 *166:26 grant[23] 4.27122e-05
24 *166:26 *182:16 0
25 *166:26 *192:12 0.000114854
26 *166:26 *210:10 0.000122262
27 *166:26 *231:14 3.65322e-06
28 *166:26 *231:27 5.43446e-05
29 *166:26 *265:7 2.76156e-05
30 *166:26 *265:9 4.71965e-05
31 *166:26 *265:25 0.000164383
32 *318:A *166:20 0
33 *318:A *166:24 1.25189e-05
34 *320:A *166:20 0
35 *428:A2 *166:20 0
36 *429:A *166:20 0
37 *450:C2 *166:10 7.98429e-05
38 *458:A3 *166:26 1.17844e-05
39 *462:A3 *166:24 7.19036e-06
40 *473:A3 *166:10 1.60377e-06
41 *492:A2 *166:10 9.55059e-06
42 *509:A2 *166:10 1.02762e-05
43 *20:27 *166:20 1.74934e-05
44 *20:75 *166:8 1.32348e-05
45 *22:12 *166:20 5.35988e-06
46 *126:10 *166:20 3.26992e-05
47 *126:35 *166:20 3.46596e-06
48 *145:12 *166:20 3.40142e-05
49 *146:31 *166:26 3.67311e-05
50 *147:12 *166:26 2.42461e-05
51 *149:10 *166:20 6.28503e-05
52 *149:12 *166:20 1.72426e-05
53 *151:39 *166:10 4.61648e-06
54 *151:49 *166:10 3.33203e-06
55 *159:8 *166:10 0.000175713
56 *159:19 *166:10 8.09112e-05
57 *161:131 *166:10 2.40955e-06
*RES
1 *473:ZN *166:8 11.25 
2 *166:8 *166:10 48.4286 
3 *166:10 *166:20 46.5714 
4 *166:20 *166:24 12.6786 
5 *166:24 *166:26 65.75 
6 *166:26 grant[12] 14.1786 
*END

*D_NET *167 0.0035691
*CONN
*P grant[13] O
*I *475:ZN O *D NOR3_X1
*CAP
1 grant[13] 0.000199407
2 *475:ZN 0
3 *167:10 0.000570918
4 *167:8 0.000371511
5 *167:6 0.000232457
6 *167:4 0.000232457
7 grant[13] grant[14] 1.20712e-06
8 grant[13] grant[36] 3.73741e-05
9 grant[13] *207:8 3.64418e-05
10 grant[13] *223:8 0
11 *167:6 grant[55] 0.000454496
12 *167:6 *202:8 1.91544e-05
13 *167:6 *203:14 0.000235405
14 *167:6 *259:5 0.000217761
15 *167:6 *259:9 2.36946e-05
16 *167:10 grant[43] 0.000155776
17 *167:10 *177:12 0.000207421
18 *167:10 *206:12 0.000201366
19 *167:10 *216:24 3.68407e-05
20 grant[11] grant[13] 2.05033e-06
21 *475:A3 *167:6 2.16072e-07
22 *165:22 grant[13] 0.000333149
*RES
1 *475:ZN *167:4 5 
2 *167:4 *167:6 49.75 
3 *167:6 *167:8 5 
4 *167:8 *167:10 48.4286 
5 *167:10 grant[13] 36.5357 
*END

*D_NET *168 0.00416857
*CONN
*P grant[14] O
*I *477:ZN O *D NOR3_X1
*CAP
1 grant[14] 0.000227472
2 *477:ZN 9.67513e-05
3 *168:26 0.00048371
4 *168:22 0.000487873
5 *168:18 0.000422875
6 *168:10 0.000287991
7 grant[14] *251:5 0.000189055
8 *168:10 *221:16 4.2447e-05
9 *168:10 *260:15 0
10 *168:18 *186:16 1.68401e-05
11 *168:18 *187:14 8.90607e-05
12 *168:18 *289:47 4.32144e-07
13 *168:22 *170:6 0
14 *168:22 *186:16 1.40523e-05
15 *168:22 *189:20 6.21269e-06
16 *168:22 *190:14 0
17 *168:22 *203:20 6.81701e-06
18 *168:22 *206:10 7.02608e-06
19 *168:22 *289:19 4.48497e-05
20 *168:22 *289:47 1.49183e-05
21 *168:26 *247:9 0
22 *168:26 *269:9 0.000661199
23 grant[13] grant[14] 1.20712e-06
24 *473:A2 *168:10 8.762e-07
25 *473:A3 *168:10 5.48953e-05
26 *477:A1 *168:10 7.94852e-06
27 *482:A1 *168:22 5.11574e-06
28 *498:A1 *168:22 6.85774e-07
29 *498:A3 *168:22 0.000110224
30 *499:A1 *168:22 7.90626e-06
31 *499:A2 *168:22 3.09411e-06
32 *499:A3 *168:22 6.82202e-07
33 *500:A3 *168:22 0
34 *508:A3 *168:18 2.06353e-05
35 *510:A2 *168:10 3.38132e-06
36 *517:A1 *168:22 1.32348e-05
37 *518:A1 *168:22 4.9678e-06
38 *151:39 *168:10 3.98918e-06
39 *151:49 *168:10 1.45367e-06
40 *151:101 *168:22 1.81923e-05
41 *161:114 *168:18 9.93293e-06
42 *161:118 *168:18 0.000253984
43 *161:131 *168:10 1.26129e-05
44 *165:8 *168:18 9.2277e-05
45 *165:22 grant[14] 0.000441687
*RES
1 *477:ZN *168:10 27.4643 
2 *168:10 *168:18 32.2857 
3 *168:18 *168:22 35.5 
4 *168:22 *168:26 40.5357 
5 *168:26 grant[14] 41.5357 
*END

*D_NET *169 0.0051143
*CONN
*P grant[15] O
*I *479:ZN O *D NOR3_X1
*CAP
1 grant[15] 0.000625391
2 *479:ZN 2.18729e-05
3 *169:16 0.000625391
4 *169:14 0.000490438
5 *169:12 0.000499499
6 *169:10 0.000421498
7 *169:8 0.00043431
8 grant[15] grant[24] 6.9213e-06
9 grant[15] grant[35] 0.000148429
10 grant[15] grant[44] 0
11 grant[15] *273:5 0
12 grant[15] *293:5 0.000346405
13 *169:10 *204:10 0.00112509
14 *169:10 *204:14 1.60796e-06
15 *169:12 *204:14 8.38766e-06
16 *169:14 *331:A2 1.01993e-05
17 *169:14 *204:14 0.000154518
18 *169:14 *263:31 5.41015e-05
19 *169:14 *297:14 2.13496e-05
20 *374:A *169:14 0
21 *375:A *169:14 1.60377e-06
22 *375:B2 *169:14 1.1516e-05
23 *411:C1 *169:14 2.43932e-05
24 *415:A1 *169:14 0
25 *440:C2 *169:14 3.71657e-05
26 *513:A2 *169:8 8.2465e-06
27 *514:A3 *169:8 2.39679e-06
28 *33:25 *169:14 0
29 *159:32 *169:8 0
30 *165:12 *169:10 3.35711e-05
*RES
1 *479:ZN *169:8 12.25 
2 *169:8 *169:10 60.9822 
3 *169:10 *169:12 1.25 
4 *169:12 *169:14 56.2322 
5 *169:14 *169:16 5 
6 *169:16 grant[15] 88.5358 
*END

*D_NET *170 0.00474987
*CONN
*P grant[16] O
*I *482:ZN O *D NOR2_X1
*CAP
1 grant[16] 2.29045e-05
2 *482:ZN 0.000328031
3 *170:10 0.00071388
4 *170:8 0.000690975
5 *170:6 0.000328031
6 grant[16] grant[38] 1.96578e-05
7 grant[16] *279:5 1.90987e-05
8 *170:6 grant[43] 0.000131257
9 *170:6 *172:8 5.87392e-05
10 *170:6 *195:14 0
11 *170:6 *289:19 0
12 *170:10 grant[23] 0.00033129
13 *170:10 *179:18 5.29746e-05
14 *170:10 *244:9 9.72585e-06
15 *170:10 *255:9 0.00131295
16 *170:10 *263:11 1.27487e-05
17 *170:10 *274:11 0.000105043
18 *170:10 *283:9 0.00058592
19 *170:10 *290:11 7.18184e-06
20 *170:10 *294:11 1.94646e-05
21 *168:22 *170:6 0
*RES
1 *482:ZN *170:6 46.25 
2 *170:6 *170:8 5 
3 *170:8 *170:10 118.321 
4 *170:10 grant[16] 9.03572 
*END

*D_NET *171 0.00359609
*CONN
*P grant[17] O
*I *483:ZN O *D NOR2_X1
*CAP
1 grant[17] 0.000287426
2 *483:ZN 1.14533e-05
3 *171:16 0.000641867
4 *171:12 0.000627423
5 *171:8 0.000284435
6 grant[17] grant[19] 0.000233624
7 grant[17] grant[29] 9.26487e-06
8 grant[17] grant[33] 0.000212451
9 *171:12 *449:A2 4.92317e-06
10 *171:12 *175:10 1.27512e-05
11 *171:12 *186:26 0.000755045
12 *171:12 *231:27 7.02815e-06
13 *171:12 *231:38 8.36495e-06
14 *171:12 *231:49 4.15205e-05
15 *171:12 *231:60 7.9638e-06
16 *171:12 *232:90 4.20051e-05
17 *171:12 *239:19 2.28136e-05
18 *171:16 *227:52 3.3627e-05
19 *171:16 *239:19 2.14396e-06
20 *171:16 *239:23 0.000118174
21 *160:23 *171:8 1.08036e-06
22 *160:74 *171:12 6.37208e-06
23 *160:80 *171:12 1.41981e-05
24 *160:80 *171:16 9.15329e-06
25 *162:78 *171:8 1.19839e-05
26 *163:12 *171:12 0.000188998
*RES
1 *483:ZN *171:8 11.25 
2 *171:8 *171:12 48.1072 
3 *171:12 *171:16 44.3214 
4 *171:16 grant[17] 49.0357 
*END

*D_NET *172 0.00155627
*CONN
*P grant[18] O
*I *484:ZN O *D NOR2_X1
*CAP
1 grant[18] 0.000138108
2 *484:ZN 0.000213813
3 *172:12 0.000354589
4 *172:8 0.000430293
5 grant[18] grant[8] 4.51152e-06
6 grant[18] index[5] 9.42407e-05
7 grant[18] *179:6 8.76035e-05
8 *172:8 *195:14 0
9 *172:12 *212:14 0.000170854
10 *172:12 *214:10 0
11 *160:68 *172:8 3.51536e-06
12 *170:6 *172:8 5.87392e-05
*RES
1 *484:ZN *172:8 34.25 
2 *172:8 *172:12 30.3572 
3 *172:12 grant[18] 21.0357 
*END

*D_NET *173 0.00290787
*CONN
*P grant[19] O
*I *485:ZN O *D NOR2_X1
*CAP
1 grant[19] 0.000338506
2 *485:ZN 0.00026812
3 *173:28 0.000588348
4 *173:14 0.000517962
5 grant[19] grant[29] 0
6 grant[19] grant[47] 2.05033e-06
7 grant[19] grant[51] 0.000120712
8 *173:14 *209:10 0.000133305
9 *173:14 *222:12 6.56007e-06
10 *173:14 *228:67 1.38453e-05
11 *173:14 *278:19 1.82645e-06
12 *173:14 *290:23 6.06584e-05
13 *173:28 grant[29] 5.2785e-05
14 *173:28 grant[51] 0
15 *173:28 *370:A2 2.35379e-05
16 *173:28 *370:A3 1.87369e-06
17 *173:28 *410:A 0
18 *173:28 *410:B 7.72537e-06
19 *173:28 *238:17 2.90685e-06
20 *173:28 *250:19 3.12276e-05
21 *173:28 *277:49 3.27172e-05
22 *173:28 *277:55 2.08098e-06
23 *173:28 *294:13 4.825e-05
24 *173:28 *294:15 3.43785e-05
25 grant[17] grant[19] 0.000233624
26 *338:A3 *173:14 5.48932e-05
27 *339:A4 *173:14 8.0719e-05
28 *373:C2 *173:28 0.00011868
29 *439:A *173:28 1.4479e-05
30 *485:A2 *173:14 2.68096e-05
31 *502:A3 *173:14 2.04312e-06
32 *22:12 *173:14 1.32323e-05
33 *36:14 *173:14 7.40116e-05
34 *145:24 *173:14 0
*RES
1 *485:ZN *173:14 46.4929 
2 *173:14 *173:28 44.7857 
3 *173:28 grant[19] 51.4286 
*END

*D_NET *174 0.00369569
*CONN
*P grant[1] O
*I *449:ZN O *D NOR3_X1
*CAP
1 grant[1] 0.000249926
2 *449:ZN 8.06541e-05
3 *174:20 0.000249926
4 *174:18 0.000313574
5 *174:16 0.000394228
6 grant[1] *238:17 0.000163933
7 grant[1] *247:15 0.000100635
8 grant[1] *250:5 0.000171516
9 grant[1] *295:15 0.000120493
10 *174:16 grant[32] 1.80284e-05
11 *174:16 *183:20 2.30029e-05
12 *174:16 *187:38 2.43548e-06
13 *174:16 *189:22 5.40327e-05
14 *174:16 *214:8 1.85634e-05
15 *174:16 *225:8 6.85774e-07
16 *174:16 *231:75 7.72537e-06
17 *174:16 *231:94 1.74934e-05
18 *174:16 *231:98 1.66988e-05
19 *174:18 *189:22 0.000356715
20 *174:18 *227:52 0.000982571
21 *174:18 *232:66 9.28375e-05
22 *174:18 *232:80 0.000102626
23 *150:33 *174:18 5.41015e-05
24 *160:68 *174:16 4.83839e-05
25 *162:64 *174:18 5.49101e-05
*RES
1 *449:ZN *174:16 32.8929 
2 *174:16 *174:18 64.0357 
3 *174:18 *174:20 5 
4 *174:20 grant[1] 45.5357 
*END

*D_NET *175 0.00219907
*CONN
*P grant[20] O
*I *486:ZN O *D NOR2_X1
*CAP
1 grant[20] 0.000224332
2 *486:ZN 2.63415e-05
3 *175:14 0.00039286
4 *175:10 0.00019487
5 grant[20] grant[22] 1.69339e-05
6 grant[20] grant[8] 0.000115699
7 grant[20] *202:14 0.000383021
8 grant[20] *280:7 7.48041e-06
9 *175:14 *186:28 0.000399945
10 *175:14 *190:24 0.000401015
11 *160:74 *175:10 9.24246e-06
12 *160:80 *175:10 1.45805e-05
13 *171:12 *175:10 1.27512e-05
*RES
1 *486:ZN *175:10 18.6429 
2 *175:10 *175:14 42.25 
3 *175:14 grant[20] 36.6429 
*END

*D_NET *176 0.00195204
*CONN
*P grant[21] O
*I *487:ZN O *D NOR2_X1
*CAP
1 grant[21] 4.44812e-05
2 *487:ZN 0
3 *176:6 0.000322343
4 *176:4 0.000277861
5 grant[21] grant[52] 2.05033e-06
6 grant[21] grant[5] 2.05033e-06
7 grant[21] *179:16 9.28375e-05
8 *176:6 grant[3] 7.72792e-06
9 *176:6 grant[9] 0.000553423
10 *176:6 *178:6 0.000604231
11 *176:6 *196:16 6.06683e-06
12 *176:6 *222:16 3.89715e-05
*RES
1 *487:ZN *176:4 5 
2 *176:4 *176:6 59.75 
3 *176:6 grant[21] 15.5357 
*END

*D_NET *177 0.00213046
*CONN
*P grant[22] O
*I *488:ZN O *D NOR2_X1
*CAP
1 grant[22] 0.000178827
2 *488:ZN 0.0001026
3 *177:12 0.000447442
4 *177:8 0.000371215
5 grant[22] grant[8] 0
6 grant[22] *214:8 0.000164761
7 grant[22] *225:8 0.000207217
8 grant[22] *247:7 6.9979e-05
9 grant[22] *280:7 6.9213e-06
10 *177:8 grant[49] 7.9624e-06
11 *177:8 *193:16 0.000207749
12 *177:8 *212:12 7.92563e-05
13 *177:12 *206:12 6.21776e-05
14 grant[20] grant[22] 1.69339e-05
15 *167:10 *177:12 0.000207421
*RES
1 *488:ZN *177:8 29.25 
2 *177:8 *177:12 35.1072 
3 *177:12 grant[22] 31.0357 
*END

*D_NET *178 0.00279162
*CONN
*P grant[23] O
*I *489:ZN O *D NOR2_X1
*CAP
1 grant[23] 0.000103258
2 *489:ZN 0
3 *178:6 0.000462506
4 *178:4 0.000359248
5 grant[23] grant[27] 5.04493e-06
6 grant[23] *182:16 1.60494e-06
7 grant[23] *265:7 1.3917e-06
8 grant[23] *283:9 0.000331832
9 *178:6 *191:14 5.21847e-05
10 *178:6 *196:16 0.000220526
11 *178:6 *222:16 5.91873e-06
12 *147:22 *178:6 6.0887e-06
13 *160:95 *178:6 0.000119809
14 *160:97 *178:6 0.000143979
15 *166:26 grant[23] 4.27122e-05
16 *170:10 grant[23] 0.00033129
17 *176:6 *178:6 0.000604231
*RES
1 *489:ZN *178:4 5 
2 *178:4 *178:6 70.75 
3 *178:6 grant[23] 32.4286 
*END

*D_NET *179 0.00385248
*CONN
*P grant[24] O
*I *490:ZN O *D NOR2_X1
*CAP
1 grant[24] 9.16401e-06
2 *490:ZN 0.000348406
3 *179:18 0.00027603
4 *179:16 0.000535372
5 *179:6 0.000616913
6 grant[24] grant[35] 7.48041e-06
7 *179:6 grant[8] 0.000112878
8 *179:6 index[5] 4.4072e-05
9 *179:6 *225:8 0
10 *179:16 *193:20 0.000483368
11 *179:16 *234:15 6.31548e-06
12 *179:16 *244:9 3.11707e-05
13 *179:18 *242:11 0.000696942
14 *179:18 *244:9 7.93934e-05
15 *179:18 *258:11 4.43868e-06
16 *179:18 *262:11 1.72455e-05
17 *179:18 *263:11 6.63045e-05
18 *179:18 *274:11 1.61249e-06
19 *179:18 *286:15 8.00929e-05
20 *179:18 *290:11 8.56664e-06
21 *179:18 *294:11 0.000117498
22 grant[11] *179:16 1.55619e-05
23 grant[12] *179:16 2.48069e-05
24 grant[15] grant[24] 6.9213e-06
25 grant[18] *179:6 8.76035e-05
26 grant[21] *179:16 9.28375e-05
27 *160:68 *179:6 2.85072e-05
28 *170:10 *179:18 5.29746e-05
*RES
1 *490:ZN *179:6 48.75 
2 *179:6 *179:16 42.7143 
3 *179:16 *179:18 47.3214 
4 *179:18 grant[24] 6.53572 
*END

*D_NET *180 0.00232971
*CONN
*P grant[25] O
*I *491:ZN O *D NOR2_X1
*CAP
1 grant[25] 0.0003925
2 *491:ZN 0.000143617
3 *180:12 0.000536117
4 grant[25] grant[26] 4.29855e-06
5 grant[25] grant[2] 0
6 grant[25] *452:A1 7.16188e-07
7 grant[25] *183:20 0.000643305
8 grant[25] *185:6 8.75102e-05
9 grant[25] *197:16 1.25215e-05
10 grant[25] *231:75 0
11 grant[25] *244:7 0
12 grant[25] *247:7 1.3917e-06
13 *180:12 *183:18 2.84314e-05
14 *180:12 *190:14 0.000279929
15 *180:12 *197:16 6.97168e-06
16 *180:12 *211:14 4.52638e-05
17 *180:12 *275:27 9.84947e-05
18 *446:A3 grant[25] 0
19 *452:A3 grant[25] 2.54588e-05
20 *525:A1 *180:12 2.1755e-05
21 *140:6 grant[25] 0
22 *150:18 grant[25] 1.43238e-06
*RES
1 *491:ZN *180:12 39.4286 
2 *180:12 grant[25] 61.0357 
*END

*D_NET *181 0.00445874
*CONN
*P grant[26] O
*I *492:ZN O *D NOR2_X1
*CAP
1 grant[26] 1.14403e-05
2 *492:ZN 0.00013658
3 *181:14 0.0012201
4 *181:12 0.00134524
5 grant[26] grant[28] 8.53771e-06
6 grant[26] *280:11 6.94703e-06
7 *181:12 *182:10 0.000242269
8 *181:12 *217:12 4.7369e-05
9 *181:14 *197:16 0.00107764
10 grant[25] grant[26] 4.29855e-06
11 *471:A3 *181:12 7.94184e-05
12 *492:A2 *181:12 7.72537e-06
13 *20:49 *181:12 4.77695e-05
14 *20:60 *181:12 4.32907e-05
15 *153:30 *181:12 7.72537e-06
16 *154:19 *181:12 0.000142693
17 *154:30 *181:12 2.96955e-05
*RES
1 *492:ZN *181:12 41.6429 
2 *181:12 *181:14 46.2 
3 *181:14 grant[26] 11.4286 
*END

*D_NET *182 0.00379308
*CONN
*P grant[27] O
*I *493:ZN O *D NOR2_X1
*CAP
1 grant[27] 1.95627e-05
2 *493:ZN 0
3 *182:16 0.000353089
4 *182:14 0.000348607
5 *182:12 0.00045868
6 *182:10 0.000674505
7 *182:6 0.000230905
8 grant[27] grant[30] 5.71321e-06
9 grant[27] *186:28 7.16188e-07
10 *182:10 *216:16 5.54369e-05
11 *182:10 *217:12 2.16263e-05
12 *182:10 *237:29 0.000137716
13 *182:10 *251:17 7.93012e-05
14 *182:12 *190:24 0.00010998
15 *182:12 *265:25 0
16 *182:12 *269:13 0.000193676
17 *182:16 *186:28 0.000525523
18 *182:16 *190:24 2.27734e-06
19 *182:16 *192:12 8.38587e-05
20 grant[23] grant[27] 5.04493e-06
21 grant[23] *182:16 1.60494e-06
22 *318:A *182:12 0
23 *319:A *182:12 4.48522e-05
24 *428:A2 *182:12 0
25 *432:A2 *182:12 1.63988e-05
26 *480:A2 *182:12 5.99828e-06
27 *480:A3 *182:12 7.72537e-06
28 *486:A2 *182:16 7.19036e-06
29 *503:A2 *182:12 9.26487e-06
30 *503:A3 *182:12 1.16371e-05
31 *503:A3 *182:16 1.57341e-06
32 *11:16 *182:10 2.0188e-05
33 *11:35 *182:12 2.61469e-06
34 *11:44 *182:12 3.0844e-06
35 *20:38 *182:10 1.52977e-05
36 *20:49 *182:10 3.84569e-05
37 *128:10 *182:12 4.15278e-05
38 *164:8 *182:10 1.71822e-05
39 *166:26 *182:16 0
40 *181:12 *182:10 0.000242269
*RES
1 *493:ZN *182:6 10 
2 *182:6 *182:10 45.2857 
3 *182:10 *182:12 58.8572 
4 *182:12 *182:14 1.60714 
5 *182:14 *182:16 50.6429 
6 *182:16 grant[27] 2.64286 
*END

*D_NET *183 0.003486
*CONN
*P grant[28] O
*I *494:ZN O *D NOR2_X1
*CAP
1 grant[28] 3.99993e-05
2 *494:ZN 0.000196948
3 *183:20 0.000342264
4 *183:18 0.000571036
5 *183:10 0.000465719
6 grant[28] grant[40] 8.21012e-06
7 grant[28] *244:7 2.05033e-06
8 grant[28] *280:11 1.77293e-05
9 *183:10 *219:8 0.000167613
10 *183:18 *463:A2 2.71958e-06
11 *183:18 *190:14 5.11191e-06
12 *183:18 *197:16 2.34188e-05
13 *183:18 *211:14 8.25592e-06
14 *183:18 *227:14 5.08776e-05
15 *183:18 *230:12 0
16 *183:18 *230:82 0
17 *183:20 *214:8 3.04473e-05
18 *183:20 *247:7 0.00038876
19 grant[25] *183:20 0.000643305
20 grant[26] grant[28] 8.53771e-06
21 *430:A *183:18 2.52965e-06
22 *445:A3 *183:18 7.40328e-06
23 *463:A1 *183:18 0.000108737
24 *494:A1 *183:10 7.66675e-07
25 *507:A2 *183:18 4.32144e-07
26 *529:A1 *183:10 1.48912e-05
27 *121:51 *183:18 5.43947e-06
28 *126:59 *183:18 2.51631e-06
29 *139:22 *183:18 8.09476e-05
30 *140:6 *183:18 2.16072e-07
31 *150:18 *183:18 0
32 *150:18 *183:20 5.80925e-05
33 *150:33 *183:20 4.32144e-07
34 *155:17 *183:10 4.67471e-05
35 *161:22 *183:18 6.28538e-05
36 *162:70 *183:20 1.26998e-05
37 *165:12 *183:10 5.68549e-05
38 *174:16 *183:20 2.30029e-05
39 *180:12 *183:18 2.84314e-05
*RES
1 *494:ZN *183:10 40.3572 
2 *183:10 *183:18 47.0357 
3 *183:18 *183:20 60.25 
4 *183:20 grant[28] 14.1786 
*END

*D_NET *184 0.00539275
*CONN
*P grant[29] O
*I *495:ZN O *D NOR2_X1
*CAP
1 grant[29] 0.000289659
2 *495:ZN 0.000172142
3 *184:20 0.000289659
4 *184:18 0.000722542
5 *184:16 0.000894684
6 grant[29] grant[33] 0.000211892
7 grant[29] *294:13 0.000591279
8 grant[29] *295:15 4.19349e-06
9 *184:16 *202:8 3.67084e-05
10 *184:16 *237:23 1.04876e-05
11 *184:16 *287:13 1.68643e-06
12 *184:16 *289:33 0.000159963
13 *184:18 *194:10 0.000680861
14 *184:18 *211:14 0
15 *184:18 *218:14 1.18002e-05
16 *184:18 *230:118 0.00121119
17 *184:18 *239:19 0
18 *184:18 *268:29 2.93661e-08
19 grant[17] grant[29] 9.26487e-06
20 grant[19] grant[29] 0
21 *452:A3 *184:18 0
22 *467:A1 *184:16 8.30282e-06
23 *498:A3 *184:18 0
24 *128:39 *184:16 3.36137e-05
25 *140:10 *184:18 0
26 *140:19 *184:18 0
27 *151:12 *184:16 0
28 *173:28 grant[29] 5.2785e-05
*RES
1 *495:ZN *184:16 36.6072 
2 *184:16 *184:18 97.2858 
3 *184:18 *184:20 5 
4 *184:20 grant[29] 56.0357 
*END

*D_NET *185 0.00102838
*CONN
*P grant[2] O
*I *452:ZN O *D NOR3_X1
*CAP
1 grant[2] 3.68136e-05
2 *452:ZN 0.000375717
3 *185:6 0.000412531
4 grant[2] grant[31] 1.19833e-05
5 grant[2] *193:20 9.55059e-06
6 grant[2] *244:7 9.5451e-06
7 grant[2] *244:9 2.93686e-05
8 grant[2] *255:9 5.53579e-05
9 *185:6 grant[32] 0
10 *185:6 *231:94 0
11 grant[25] grant[2] 0
12 grant[25] *185:6 8.75102e-05
*RES
1 *452:ZN *185:6 47.25 
2 *185:6 grant[2] 16 
*END

*D_NET *186 0.00509767
*CONN
*P grant[30] O
*I *496:ZN O *D NOR2_X1
*CAP
1 grant[30] 1.03034e-05
2 *496:ZN 2.28194e-05
3 *186:28 0.000253799
4 *186:26 0.000454131
5 *186:22 0.000325693
6 *186:16 0.00037148
7 *186:10 0.000279242
8 grant[30] grant[34] 1.3917e-06
9 *186:16 *187:14 0.000157408
10 *186:16 *188:18 5.49834e-06
11 *186:16 *189:20 8.95965e-06
12 *186:16 *237:27 0.00030591
13 *186:16 *287:21 1.2744e-05
14 *186:22 *189:20 0.000261542
15 *186:22 *267:13 3.88279e-05
16 *186:26 *239:15 0.000299538
17 *186:26 *239:19 0.000172131
18 *186:26 *265:25 5.41015e-05
19 *186:28 grant[34] 2.75346e-06
20 *186:28 *190:24 5.36849e-05
21 grant[27] grant[30] 5.71321e-06
22 grant[27] *186:28 7.16188e-07
23 *492:A2 *186:10 1.72426e-05
24 *499:A3 *186:16 3.95387e-06
25 *510:A2 *186:10 5.53846e-05
26 *525:A1 *186:16 0
27 *159:19 *186:10 9.20998e-05
28 *161:131 *186:10 4.89223e-05
29 *163:12 *186:26 2.35129e-05
30 *165:8 *186:16 4.67557e-05
31 *168:18 *186:16 1.68401e-05
32 *168:22 *186:16 1.40523e-05
33 *171:12 *186:26 0.000755045
34 *175:14 *186:28 0.000399945
35 *182:16 *186:28 0.000525523
*RES
1 *496:ZN *186:10 20.6786 
2 *186:10 *186:16 45.3572 
3 *186:16 *186:22 16.09 
4 *186:22 *186:26 49.8572 
5 *186:26 *186:28 49.75 
6 *186:28 grant[30] 1.46429 
*END

*D_NET *187 0.0031582
*CONN
*P grant[31] O
*I *497:ZN O *D NOR2_X1
*CAP
1 grant[31] 3.02239e-05
2 *497:ZN 0.000104804
3 *187:38 0.000276525
4 *187:34 0.000354881
5 *187:30 0.000274405
6 *187:14 0.000270628
7 grant[31] grant[32] 2.90098e-05
8 grant[31] *193:20 9.77674e-06
9 grant[31] *255:9 2.94435e-05
10 *187:14 *204:10 9.10909e-05
11 *187:30 *188:18 1.52083e-06
12 *187:30 *213:10 6.71842e-05
13 *187:30 *229:118 5.54348e-05
14 *187:30 *237:23 2.89018e-05
15 *187:30 *277:23 2.47043e-05
16 *187:30 *277:29 3.16958e-05
17 *187:30 *277:33 1.72405e-05
18 *187:34 *449:A2 7.19036e-06
19 *187:38 grant[32] 0.000452879
20 *187:38 *449:A1 7.19036e-06
21 *187:38 *449:A2 3.28137e-06
22 *187:38 *188:26 6.56007e-06
23 *187:38 *231:75 0
24 *187:38 *275:13 9.01846e-07
25 *187:38 *277:7 0.000189156
26 grant[2] grant[31] 1.19833e-05
27 *451:A1 *187:34 1.87392e-05
28 *499:A3 *187:30 2.84765e-06
29 *22:89 *187:30 4.16195e-06
30 *142:8 *187:30 2.08098e-06
31 *142:18 *187:30 2.37137e-05
32 *142:18 *187:34 0.000164818
33 *142:18 *187:38 1.26998e-05
34 *143:41 *187:30 8.53583e-05
35 *144:6 *187:34 4.22528e-05
36 *144:35 *187:34 1.17135e-05
37 *152:8 *187:30 4.23873e-05
38 *152:26 *187:30 3.08901e-05
39 *158:10 *187:14 9.05513e-05
40 *163:12 *187:34 4.6613e-07
41 *168:18 *187:14 8.90607e-05
42 *174:16 *187:38 2.43548e-06
43 *186:16 *187:14 0.000157408
*RES
1 *497:ZN *187:14 39.75 
2 *187:14 *187:30 41.6786 
3 *187:30 *187:34 17.1786 
4 *187:34 *187:38 49.75 
5 *187:38 grant[31] 9.64286 
*END

*D_NET *188 0.00224347
*CONN
*P grant[32] O
*I *498:ZN O *D NOR3_X1
*CAP
1 grant[32] 0.000331702
2 *498:ZN 0.000217376
3 *188:26 0.000378578
4 *188:18 0.000264252
5 grant[32] *231:94 1.68643e-06
6 grant[32] *277:7 5.81153e-06
7 *188:18 *275:13 8.43215e-07
8 *188:18 *275:27 2.27917e-05
9 *188:18 *277:23 4.85352e-05
10 *188:26 *449:A1 1.52083e-06
11 *188:26 *189:22 4.1216e-05
12 *188:26 *275:13 4.84e-05
13 grant[31] grant[32] 2.90098e-05
14 *449:A3 *188:26 4.16195e-06
15 *498:A1 *188:18 3.67e-05
16 *499:A3 *188:18 2.64016e-05
17 *22:89 *188:18 7.94836e-05
18 *22:93 *188:18 5.20899e-05
19 *142:18 *188:18 0.000141468
20 *142:18 *188:26 2.55325e-05
21 *142:29 *188:26 1.42629e-06
22 *174:16 grant[32] 1.80284e-05
23 *185:6 grant[32] 0
24 *186:16 *188:18 5.49834e-06
25 *187:30 *188:18 1.52083e-06
26 *187:38 grant[32] 0.000452879
27 *187:38 *188:26 6.56007e-06
*RES
1 *498:ZN *188:18 46.0357 
2 *188:18 *188:26 17.0357 
3 *188:26 grant[32] 46.2143 
*END

*D_NET *189 0.0041173
*CONN
*P grant[33] O
*I *499:ZN O *D NOR3_X1
*CAP
1 grant[33] 0.000257096
2 *499:ZN 0.000206359
3 *189:22 0.00096891
4 *189:20 0.000918174
5 *189:20 *267:13 1.37624e-05
6 *189:20 *271:13 4.281e-05
7 *189:22 *449:A1 4.62745e-06
8 *189:22 *452:A2 8.93589e-05
9 *189:22 *227:52 1.52977e-05
10 *189:22 *231:98 4.5591e-05
11 *189:22 *232:66 9.22959e-05
12 *189:22 *232:80 0.000106082
13 *189:22 *269:9 5.32041e-05
14 grant[17] grant[33] 0.000212451
15 grant[29] grant[33] 0.000211892
16 *482:A2 *189:22 1.34028e-05
17 *499:A3 *189:20 8.46385e-05
18 *518:A2 *189:22 7.13503e-06
19 *525:A1 *189:20 0
20 *142:29 *189:22 1.21652e-05
21 *160:34 *189:22 8.12076e-06
22 *160:68 *189:22 2.3416e-05
23 *162:70 *189:22 1.83514e-06
24 *168:22 *189:20 6.21269e-06
25 *174:16 *189:22 5.40327e-05
26 *174:18 *189:22 0.000356715
27 *186:16 *189:20 8.95965e-06
28 *186:22 *189:20 0.000261542
29 *188:26 *189:22 4.1216e-05
*RES
1 *499:ZN *189:20 32.3243 
2 *189:20 *189:22 89.9643 
3 *189:22 grant[33] 49.5357 
*END

*D_NET *190 0.00354587
*CONN
*P grant[34] O
*I *500:ZN O *D NOR3_X1
*CAP
1 grant[34] 1.07821e-05
2 *500:ZN 0.000180596
3 *190:24 0.000342256
4 *190:22 0.000428032
5 *190:14 0.000277154
6 grant[34] *288:7 1.3917e-06
7 *190:14 *211:14 5.3529e-05
8 *190:22 *211:14 0.00020433
9 *190:24 *269:13 0.000208446
10 *190:24 *288:7 2.75346e-06
11 *190:24 *288:9 0.000190462
12 grant[30] grant[34] 1.3917e-06
13 *455:A3 *190:22 7.27769e-05
14 *499:A1 *190:14 0
15 *500:A3 *190:14 7.19036e-06
16 *525:A1 *190:14 1.74934e-05
17 *22:61 *190:22 8.06325e-05
18 *22:80 *190:14 0.000231166
19 *22:80 *190:22 5.66549e-05
20 *22:89 *190:14 0.000324083
21 *168:22 *190:14 0
22 *175:14 *190:24 0.000401015
23 *180:12 *190:14 0.000279929
24 *182:12 *190:24 0.00010998
25 *182:16 *190:24 2.27734e-06
26 *183:18 *190:14 5.11191e-06
27 *186:28 grant[34] 2.75346e-06
28 *186:28 *190:24 5.36849e-05
*RES
1 *500:ZN *190:14 44.875 
2 *190:14 *190:22 21.8393 
3 *190:22 *190:24 61.25 
4 *190:24 grant[34] 1.46429 
*END

*D_NET *191 0.00273724
*CONN
*P grant[35] O
*I *502:ZN O *D NOR3_X1
*CAP
1 grant[35] 0.000386169
2 *502:ZN 0.000130403
3 *191:18 0.000386169
4 *191:16 0.000579166
5 *191:14 0.000709569
6 grant[35] grant[44] 0.000297499
7 *191:14 *222:12 2.77721e-05
8 *191:14 *222:16 7.72537e-06
9 *191:16 *373:A 0
10 *191:16 *194:10 0
11 *191:16 *294:60 0
12 grant[15] grant[35] 0.000148429
13 grant[24] grant[35] 7.48041e-06
14 *487:A1 *191:14 2.72171e-06
15 *147:22 *191:14 1.52083e-06
16 *160:97 *191:14 4.32144e-07
17 *178:6 *191:14 5.21847e-05
*RES
1 *502:ZN *191:14 27.1786 
2 *191:14 *191:16 51.6786 
3 *191:16 *191:18 5 
4 *191:18 grant[35] 61.5357 
*END

*D_NET *192 0.00141913
*CONN
*P grant[36] O
*I *503:ZN O *D NOR3_X1
*CAP
1 grant[36] 0.000223481
2 *503:ZN 0.000244065
3 *192:12 0.000467546
4 grant[36] grant[52] 5.48953e-05
5 grant[36] *212:14 2.03457e-05
6 grant[36] *214:10 0
7 grant[36] *223:8 3.02627e-05
8 grant[36] *268:15 3.11527e-05
9 *192:12 *265:25 1.79884e-05
10 grant[11] grant[36] 2.60945e-06
11 grant[12] grant[36] 2.05033e-06
12 grant[13] grant[36] 3.73741e-05
13 *486:A1 *192:12 1.76665e-06
14 *486:A2 *192:12 7.19036e-06
15 *503:A3 *192:12 4.5028e-05
16 *146:31 *192:12 3.46581e-05
17 *166:26 *192:12 0.000114854
18 *182:16 *192:12 8.38587e-05
*RES
1 *503:ZN *192:12 45.9286 
2 *192:12 grant[36] 32.3929 
*END

*D_NET *193 0.00354697
*CONN
*P grant[37] O
*I *504:ZN O *D NOR3_X1
*CAP
1 grant[37] 1.96256e-05
2 *504:ZN 7.79574e-05
3 *193:20 0.000224472
4 *193:18 0.000204846
5 *193:16 0.000300624
6 *193:14 0.000378581
7 grant[37] grant[39] 7.85867e-06
8 grant[37] *275:11 2.05033e-06
9 *193:14 grant[5] 8.26873e-05
10 *193:14 *211:12 1.40196e-06
11 *193:14 *222:16 3.19164e-06
12 *193:14 *230:118 0
13 *193:14 *239:23 4.12796e-06
14 *193:16 grant[49] 2.64989e-05
15 *193:16 grant[52] 0.000208764
16 *193:16 grant[5] 0.000118933
17 *193:16 *212:12 1.86809e-06
18 *193:20 *244:9 0.000694929
19 *193:20 *255:9 2.50285e-05
20 *193:20 *280:11 0.00033048
21 grant[2] *193:20 9.55059e-06
22 grant[31] *193:20 9.77674e-06
23 *488:A2 *193:14 7.72537e-06
24 *488:A2 *193:16 7.19036e-06
25 *504:A1 *193:14 6.56185e-06
26 *505:A3 *193:14 3.97872e-05
27 *160:80 *193:16 4.43172e-05
28 *160:95 *193:14 1.66988e-05
29 *162:53 *193:16 3.23723e-07
30 *177:8 *193:16 0.000207749
31 *179:16 *193:20 0.000483368
*RES
1 *504:ZN *193:14 27.2857 
2 *193:14 *193:16 49.75 
3 *193:16 *193:18 5 
4 *193:18 *193:20 47.0714 
5 *193:20 grant[37] 7.03572 
*END

*D_NET *194 0.00322528
*CONN
*P grant[38] O
*I *505:ZN O *D NOR3_X1
*CAP
1 grant[38] 0.000346752
2 *505:ZN 3.70355e-05
3 *194:12 0.000346752
4 *194:10 0.000599349
5 *194:8 0.000636385
6 grant[38] grant[60] 0.000275383
7 grant[38] *279:5 0.000133096
8 *194:10 *211:12 0
9 *194:10 *218:14 1.20501e-05
10 *194:10 *230:118 6.35082e-05
11 grant[16] grant[38] 1.96578e-05
12 *505:A2 *194:8 8.43215e-07
13 *505:A3 *194:8 1.27662e-05
14 *162:42 *194:8 6.0838e-05
15 *184:18 *194:10 0.000680861
16 *191:16 *194:10 0
*RES
1 *505:ZN *194:8 15.75 
2 *194:8 *194:10 69.4643 
3 *194:10 *194:12 5 
4 *194:12 grant[38] 56.5357 
*END

*D_NET *195 0.00322431
*CONN
*P grant[39] O
*I *506:ZN O *D NOR3_X1
*CAP
1 grant[39] 4.78616e-05
2 *506:ZN 4.91664e-05
3 *195:14 0.000507309
4 *195:12 0.000459448
5 *195:10 0.000399056
6 *195:8 0.000448222
7 grant[39] grant[40] 3.23723e-07
8 grant[39] grant[43] 0
9 grant[39] index[2] 0
10 grant[39] *267:11 2.60945e-06
11 *195:8 *213:8 9.65418e-06
12 *195:10 *215:10 0
13 *195:10 *231:8 2.9975e-06
14 *195:10 *231:14 7.11905e-07
15 *195:14 index[2] 7.31076e-05
16 *195:14 *200:16 0.000370792
17 grant[37] grant[39] 7.85867e-06
18 *457:A2 *195:10 1.50604e-05
19 *459:A2 *195:10 4.13708e-05
20 *499:A3 *195:10 1.64422e-05
21 *521:A1 *195:10 0
22 *22:41 *195:8 8.89101e-05
23 *126:35 *195:10 1.34929e-05
24 *126:52 *195:10 0.000341204
25 *141:52 *195:10 3.68589e-05
26 *142:8 *195:10 4.16195e-06
27 *147:12 *195:10 1.11209e-05
28 *147:16 *195:10 0
29 *150:12 *195:10 2.94455e-05
30 *160:23 *195:14 0.00021679
31 *160:30 *195:14 2.25089e-06
32 *160:68 *195:14 1.49912e-05
33 *162:27 *195:8 1.30903e-05
34 *170:6 *195:14 0
35 *172:8 *195:14 0
*RES
1 *506:ZN *195:8 18.25 
2 *195:8 *195:10 46.3929 
3 *195:10 *195:12 5 
4 *195:12 *195:14 64.25 
5 *195:14 grant[39] 5.32143 
*END

*D_NET *196 0.00264073
*CONN
*P grant[3] O
*I *454:ZN O *D NOR3_X1
*CAP
1 grant[3] 2.04809e-05
2 *454:ZN 0.000185947
3 *196:16 0.000437518
4 *196:14 0.000602983
5 grant[3] grant[9] 1.3917e-06
6 grant[3] *234:15 5.71321e-06
7 grant[3] *238:15 3.23723e-07
8 *196:14 *454:A2 2.14522e-06
9 *196:14 *461:A3 3.26648e-06
10 *196:14 *213:10 0.000294009
11 *196:14 *215:10 7.9361e-06
12 *196:14 *232:32 3.26648e-06
13 *196:14 *277:33 0.000109575
14 *196:14 *277:49 3.11725e-05
15 *196:16 *226:22 0.000240964
16 *196:16 *238:15 0.00010588
17 *196:16 *258:13 0.000108076
18 *160:95 *196:16 0.000117593
19 *160:97 *196:16 0.000128169
20 *176:6 grant[3] 7.72792e-06
21 *176:6 *196:16 6.06683e-06
22 *178:6 *196:16 0.000220526
*RES
1 *454:ZN *196:14 43.0357 
2 *196:14 *196:16 72.75 
3 *196:16 grant[3] 2.64286 
*END

*D_NET *197 0.00283164
*CONN
*P grant[40] O
*I *507:ZN O *D NOR3_X1
*CAP
1 grant[40] 0.00011275
2 *507:ZN 0.000549697
3 *197:16 0.000662446
4 grant[40] grant[43] 3.23723e-07
5 grant[40] *237:11 2.60945e-06
6 grant[40] *267:11 1.02605e-05
7 grant[40] *275:11 4.24402e-05
8 grant[40] *280:11 0.000285047
9 *197:16 *211:14 3.69807e-05
10 *197:16 *277:23 0
11 grant[25] *197:16 1.25215e-05
12 grant[28] grant[40] 8.21012e-06
13 grant[39] grant[40] 3.23723e-07
14 *180:12 *197:16 6.97168e-06
15 *181:14 *197:16 0.00107764
16 *183:18 *197:16 2.34188e-05
*RES
1 *507:ZN *197:16 48.3114 
2 *197:16 grant[40] 21.4286 
*END

*D_NET *198 0.00386809
*CONN
*P grant[41] O
*I *508:ZN O *D NOR3_X1
*CAP
1 grant[41] 0.000438479
2 *508:ZN 2.67933e-05
3 *198:12 0.000438479
4 *198:10 0.000261305
5 *198:8 0.000288099
6 grant[41] grant[45] 5.03929e-05
7 grant[41] grant[49] 2.36273e-05
8 grant[41] *212:12 5.83791e-05
9 grant[41] *288:7 1.3917e-06
10 grant[41] *288:9 0.000762136
11 *198:8 *289:47 3.73811e-05
12 *198:10 *200:10 0.000104335
13 *198:10 *213:10 2.10393e-05
14 *198:10 *215:10 0.00026419
15 *198:10 *277:23 3.02372e-05
16 *198:10 *287:19 0.000103038
17 *467:A3 *198:8 2.39679e-06
18 *128:10 *198:10 0.000116575
19 *128:19 *198:10 0.000768463
20 *151:12 *198:8 6.37281e-06
21 *151:101 *198:8 6.93298e-06
22 *162:27 grant[41] 2.08907e-05
23 *162:42 grant[41] 2.51696e-05
24 *162:53 grant[41] 1.1982e-05
*RES
1 *508:ZN *198:8 13.75 
2 *198:8 *198:10 53.1786 
3 *198:10 *198:12 5 
4 *198:12 grant[41] 71.5357 
*END

*D_NET *199 0.005145
*CONN
*P grant[42] O
*I *509:ZN O *D NOR3_X1
*CAP
1 grant[42] 2.94439e-06
2 *509:ZN 1.96021e-05
3 *199:20 0.00120705
4 *199:16 0.00239921
5 *199:14 0.00121471
6 grant[42] *272:5 2.60945e-06
7 grant[42] *284:5 2.60945e-06
8 *199:14 *271:13 1.82188e-06
9 *199:14 *283:13 0
10 *199:16 *236:17 0.000292678
11 *469:A3 *199:14 0
12 *151:49 *199:14 1.76665e-06
*RES
1 *509:ZN *199:14 19.3486 
2 *199:14 *199:16 56.07 
3 *199:16 *199:20 47.94 
4 *199:20 grant[42] 10.5357 
*END

*D_NET *200 0.00322188
*CONN
*P grant[43] O
*I *510:ZN O *D NOR3_X1
*CAP
1 grant[43] 0.000289042
2 *510:ZN 0.00031811
3 *200:16 0.000487263
4 *200:10 0.000516331
5 grant[43] grant[46] 2.55331e-06
6 grant[43] *206:12 0.000156318
7 grant[43] *237:11 2.05033e-06
8 grant[43] *287:11 8.42314e-06
9 grant[43] *289:19 0
10 *200:10 *215:10 7.97275e-05
11 *200:10 *275:29 0
12 *200:10 *287:21 0.00014777
13 *200:16 index[2] 4.12459e-06
14 *200:16 *216:18 0.000404371
15 grant[39] grant[43] 0
16 grant[40] grant[43] 3.23723e-07
17 *510:A2 *200:10 1.07788e-05
18 *525:A1 *200:10 1.19839e-05
19 *152:12 *200:10 2.56243e-06
20 *160:23 *200:16 1.79884e-05
21 *167:10 grant[43] 0.000155776
22 *170:6 grant[43] 0.000131257
23 *195:14 *200:16 0.000370792
24 *198:10 *200:10 0.000104335
*RES
1 *510:ZN *200:10 49.9286 
2 *200:10 *200:16 49.25 
3 *200:16 grant[43] 45.4286 
*END

*D_NET *201 0.00572941
*CONN
*P grant[44] O
*I *511:ZN O *D NOR3_X1
*CAP
1 grant[44] 0.000739491
2 *511:ZN 2.38458e-05
3 *201:14 0.000739491
4 *201:12 0.000854561
5 *201:10 0.000878407
6 grant[44] grant[57] 0.000340779
7 grant[44] *249:5 0
8 *201:12 *376:A 1.9871e-06
9 *201:12 *228:27 6.70962e-05
10 *201:12 *237:29 2.36849e-05
11 *201:12 *237:31 2.22121e-06
12 *201:12 *260:15 0.000585659
13 grant[15] grant[44] 0
14 grant[35] grant[44] 0.000297499
15 *422:A1 *201:12 0.000141317
16 *426:A2 *201:12 2.39491e-05
17 *480:A2 *201:12 2.18109e-05
18 *492:A2 *201:10 1.74934e-05
19 *509:A2 *201:10 1.25215e-05
20 *11:35 *201:12 6.84295e-05
21 *18:8 *201:12 5.28986e-06
22 *20:10 *201:12 3.50172e-05
23 *21:35 *201:12 9.08759e-06
24 *21:53 *201:10 4.87096e-06
25 *112:16 *201:12 0
26 *121:8 *201:12 4.80119e-06
27 *153:30 *201:10 0
28 *155:25 *201:10 5.24701e-07
29 *159:8 *201:12 1.66996e-05
30 *159:23 *201:10 4.32144e-07
31 *166:10 *201:12 0.000812444
*RES
1 *511:ZN *201:10 13.1786 
2 *201:10 *201:12 119.679 
3 *201:12 *201:14 5 
4 *201:14 grant[44] 105.036 
*END

*D_NET *202 0.00349333
*CONN
*P grant[45] O
*I *512:ZN O *D NOR3_X1
*CAP
1 grant[45] 7.76808e-05
2 *512:ZN 0.000208543
3 *202:14 0.000647933
4 *202:12 0.000809079
5 *202:8 0.000447369
6 grant[45] grant[49] 5.0952e-05
7 *202:8 grant[55] 3.66772e-05
8 *202:8 *211:20 9.55724e-05
9 *202:8 *289:33 0
10 *202:12 grant[50] 9.82386e-05
11 *202:12 grant[53] 0.000435195
12 *202:12 *211:20 1.02313e-06
13 *202:12 *287:13 1.28122e-06
14 *202:12 *289:33 4.69529e-06
15 *202:14 *214:10 0
16 *202:14 *223:10 4.44121e-05
17 grant[20] *202:14 0.000383021
18 grant[41] grant[45] 5.03929e-05
19 *475:A3 *202:8 2.39679e-06
20 *128:39 *202:8 4.30019e-05
21 *167:6 *202:8 1.91544e-05
22 *184:16 *202:8 3.67084e-05
*RES
1 *512:ZN *202:8 35.8572 
2 *202:8 *202:12 45.75 
3 *202:12 *202:14 60.6429 
4 *202:14 grant[45] 16.5357 
*END

*D_NET *203 0.0029218
*CONN
*P grant[46] O
*I *513:ZN O *D NOR3_X1
*CAP
1 grant[46] 3.79301e-05
2 *513:ZN 3.99697e-05
3 *203:20 0.000346673
4 *203:18 0.000398016
5 *203:14 0.00028229
6 *203:10 0.000232987
7 grant[46] *255:7 8.89183e-06
8 grant[46] *255:9 2.79474e-05
9 grant[46] *283:9 2.3767e-06
10 grant[46] *287:11 1.10866e-05
11 grant[46] *289:15 2.8119e-05
12 grant[46] *289:19 7.72792e-06
13 *203:10 *257:11 8.12996e-06
14 *203:14 *259:9 0.000168336
15 *203:18 *211:14 0.000143235
16 *203:20 grant[48] 0.00048949
17 *203:20 *206:10 0.000174348
18 *203:20 *237:13 1.40947e-05
19 *203:20 *237:23 2.19138e-05
20 *203:20 *255:7 7.19036e-06
21 *203:20 *289:19 0.000134444
22 grant[43] grant[46] 2.55331e-06
23 *475:A1 *203:14 2.03335e-05
24 *475:A3 *203:14 1.59582e-06
25 *477:A3 *203:10 5.56936e-06
26 *498:A3 *203:20 3.81309e-05
27 *151:33 *203:14 2.33537e-05
28 *151:101 *203:18 2.84765e-06
29 *167:6 *203:14 0.000235405
30 *168:22 *203:20 6.81701e-06
*RES
1 *513:ZN *203:10 19.3214 
2 *203:10 *203:14 40.25 
3 *203:14 *203:18 15.4286 
4 *203:18 *203:20 57.25 
5 *203:20 grant[46] 15.3214 
*END

*D_NET *204 0.00595579
*CONN
*P grant[47] O
*I *514:ZN O *D NOR3_X1
*CAP
1 grant[47] 2.25733e-05
2 *514:ZN 8.06549e-06
3 *204:18 0.000499449
4 *204:16 0.000476876
5 *204:14 0.000262878
6 *204:10 0.000637039
7 *204:8 0.000382226
8 grant[47] grant[51] 2.05033e-06
9 grant[47] *242:11 4.24402e-05
10 *204:10 *478:A2 3.39254e-05
11 *204:10 *229:37 4.46014e-06
12 *204:10 *261:9 0
13 *204:14 *331:A2 1.72426e-05
14 *204:14 *234:19 0.000513998
15 *204:14 *234:21 0.000101043
16 *204:14 *261:9 3.95789e-05
17 *204:14 *296:9 1.56484e-06
18 *204:14 *297:14 5.54348e-05
19 *204:18 grant[51] 0.000785432
20 *204:18 grant[56] 0.000169379
21 *204:18 grant[61] 3.45018e-05
22 *204:18 *331:A4 0
23 *204:18 *334:A3 4.87096e-06
24 *204:18 *209:24 5.46203e-05
25 *204:18 *230:122 0.000191098
26 *204:18 *288:36 2.71691e-06
27 *204:18 *295:17 3.51536e-06
28 *204:18 *296:13 2.90423e-05
29 grant[19] grant[47] 2.05033e-06
30 *440:C2 *204:18 0
31 *514:A3 *204:10 1.41532e-05
32 *20:101 *204:8 1.87418e-05
33 *20:105 *204:10 4.90397e-06
34 *21:73 *204:8 1.87418e-05
35 *36:8 *204:18 3.43734e-05
36 *36:14 *204:18 6.59736e-06
37 *158:10 *204:10 9.95102e-05
38 *169:10 *204:10 0.00112509
39 *169:10 *204:14 1.60796e-06
40 *169:12 *204:14 8.38766e-06
41 *169:14 *204:14 0.000154518
42 *187:14 *204:10 9.10909e-05
*RES
1 *514:ZN *204:8 11.75 
2 *204:8 *204:10 62.9643 
3 *204:10 *204:14 46.3214 
4 *204:14 *204:16 5 
5 *204:16 *204:18 86.75 
6 *204:18 grant[47] 12.8214 
*END

*D_NET *205 0.00179083
*CONN
*P grant[48] O
*I *516:ZN O *D NOR2_X1
*CAP
1 grant[48] 0.000220269
2 *516:ZN 5.42214e-05
3 *205:12 0.000274491
4 grant[48] grant[4] 1.20712e-06
5 grant[48] *237:13 0.000514171
6 grant[48] *255:7 9.63927e-06
7 *205:12 *208:10 7.88605e-05
8 *205:12 *289:33 4.42996e-06
9 *482:A1 *205:12 1.68244e-05
10 *500:A3 *205:12 1.8031e-05
11 *517:A1 *205:12 3.71164e-05
12 *144:37 *205:12 2.25089e-06
13 *162:104 *205:12 5.39708e-05
14 *163:12 *205:12 1.58552e-05
15 *203:20 grant[48] 0.00048949
*RES
1 *516:ZN *205:12 24.2857 
2 *205:12 grant[48] 48.0357 
*END

*D_NET *206 0.00283996
*CONN
*P grant[49] O
*I *517:ZN O *D NOR2_X1
*CAP
1 grant[49] 0.00020196
2 *517:ZN 8.53094e-05
3 *206:12 0.000623411
4 *206:10 0.000506761
5 grant[49] grant[52] 0.00010387
6 grant[49] *212:12 0.000117156
7 *206:10 *289:19 0.000142731
8 *206:12 *216:24 0.000243659
9 *206:12 *247:9 0
10 *206:12 *268:15 9.15922e-05
11 grant[41] grant[49] 2.36273e-05
12 grant[43] *206:12 0.000156318
13 grant[45] grant[49] 5.0952e-05
14 *517:A1 *206:10 1.32348e-05
15 *167:10 *206:12 0.000201366
16 *168:22 *206:10 7.02608e-06
17 *177:8 grant[49] 7.9624e-06
18 *177:12 *206:12 6.21776e-05
19 *193:16 grant[49] 2.64989e-05
20 *203:20 *206:10 0.000174348
*RES
1 *517:ZN *206:10 27.1786 
2 *206:10 *206:12 55.8929 
3 *206:12 grant[49] 37.5357 
*END

*D_NET *207 0.00212615
*CONN
*P grant[4] O
*I *456:ZN O *D NOR3_X1
*CAP
1 grant[4] 0.000112905
2 *456:ZN 0.000150638
3 *207:12 0.000510515
4 *207:8 0.000548248
5 grant[4] grant[50] 7.01546e-06
6 grant[4] *237:13 0.000254104
7 grant[4] *287:13 0.000239723
8 *207:8 *223:8 4.69445e-05
9 *207:8 *232:66 7.72792e-06
10 *207:8 *268:29 5.56507e-05
11 *207:12 *212:14 0.000152694
12 grant[13] *207:8 3.64418e-05
13 grant[48] grant[4] 1.20712e-06
14 *165:22 *207:8 2.33422e-06
*RES
1 *456:ZN *207:8 31.75 
2 *207:8 *207:12 47.3214 
3 *207:12 grant[4] 24.0357 
*END

*D_NET *208 0.00150085
*CONN
*P grant[50] O
*I *518:ZN O *D NOR2_X1
*CAP
1 grant[50] 0.000287264
2 *518:ZN 4.00817e-05
3 *208:10 0.000327345
4 grant[50] grant[53] 2.04356e-05
5 grant[50] *271:11 4.48581e-06
6 grant[50] *287:13 0.000506719
7 *208:10 *289:33 1.1144e-06
8 grant[4] grant[50] 7.01546e-06
9 *163:12 *208:10 0.000129288
10 *202:12 grant[50] 9.82386e-05
11 *205:12 *208:10 7.88605e-05
*RES
1 *518:ZN *208:10 22.0357 
2 *208:10 grant[50] 48.5357 
*END

*D_NET *209 0.00341763
*CONN
*P grant[51] O
*I *519:ZN O *D NOR2_X1
*CAP
1 grant[51] 0.000428187
2 *519:ZN 4.82248e-06
3 *209:24 0.000476845
4 *209:10 0.000321073
5 *209:8 0.000277238
6 grant[51] grant[56] 1.3917e-06
7 grant[51] *437:B2 5.36451e-05
8 grant[51] *288:36 7.19036e-06
9 grant[51] *288:43 5.33113e-06
10 *209:10 *334:A1 0.000144027
11 *209:10 *228:67 0
12 *209:10 *278:19 7.06488e-06
13 *209:10 *286:31 2.13441e-05
14 *209:10 *288:15 1.77747e-05
15 *209:10 *288:21 8.93815e-05
16 *209:10 *290:23 7.70442e-05
17 *209:10 *294:27 5.03994e-05
18 *209:24 *331:A4 0
19 *209:24 *334:A1 4.9829e-06
20 *209:24 *334:A3 2.90448e-05
21 *209:24 *334:A4 2.29518e-05
22 *209:24 *293:28 7.19108e-06
23 grant[19] grant[51] 0.000120712
24 grant[47] grant[51] 2.05033e-06
25 *339:A1 *209:10 2.68727e-05
26 *339:A4 *209:10 8.0719e-05
27 *439:A grant[51] 0
28 *489:A1 *209:10 9.24246e-06
29 *502:A2 *209:10 5.59765e-05
30 *502:A3 *209:10 0
31 *22:12 *209:10 1.7644e-05
32 *36:14 *209:10 4.01613e-05
33 *145:24 *209:8 7.72792e-06
34 *149:12 *209:10 1.87905e-05
35 *149:14 *209:10 1.43544e-05
36 *162:10 *209:8 3.09411e-06
37 *173:14 *209:10 0.000133305
38 *173:28 grant[51] 0
39 *204:18 grant[51] 0.000785432
40 *204:18 *209:24 5.46203e-05
*RES
1 *519:ZN *209:8 10.75 
2 *209:8 *209:10 46.3929 
3 *209:10 *209:24 22.8571 
4 *209:24 grant[51] 72.5357 
*END

*D_NET *210 0.00173441
*CONN
*P grant[52] O
*I *520:ZN O *D NOR2_X1
*CAP
1 grant[52] 0.000219495
2 *520:ZN 0.000155127
3 *210:10 0.000374623
4 grant[52] grant[5] 1.59582e-06
5 grant[52] *212:14 0.000205296
6 *210:10 *265:9 0.000286435
7 grant[21] grant[52] 2.05033e-06
8 grant[36] grant[52] 5.48953e-05
9 grant[49] grant[52] 0.00010387
10 *166:26 *210:10 0.000122262
11 *193:16 grant[52] 0.000208764
*RES
1 *520:ZN *210:10 37.6786 
2 *210:10 grant[52] 40.1786 
*END

*D_NET *211 0.00352033
*CONN
*P grant[53] O
*I *521:ZN O *D NOR2_X1
*CAP
1 grant[53] 0.000306505
2 *521:ZN 6.24709e-05
3 *211:20 0.00035997
4 *211:14 0.000584318
5 *211:12 0.000593324
6 grant[53] grant[54] 0.000103041
7 grant[53] grant[55] 6.64591e-05
8 grant[53] *271:11 4.48581e-06
9 *211:12 *218:14 1.49661e-05
10 *211:12 *222:16 8.26038e-06
11 *211:14 *218:14 0.000258856
12 *211:14 *268:29 1.41333e-05
13 *211:20 grant[55] 4.01482e-05
14 grant[50] grant[53] 2.04356e-05
15 *499:A3 *211:14 3.3075e-06
16 *500:A2 *211:14 4.27165e-06
17 *22:52 *211:12 1.45805e-05
18 *22:61 *211:12 4.58393e-06
19 *22:61 *211:14 1.26374e-05
20 *22:89 *211:14 2.54645e-06
21 *147:16 *211:12 2.08098e-06
22 *147:22 *211:12 2.84765e-06
23 *151:101 *211:14 1.20751e-06
24 *151:112 *211:14 5.00632e-06
25 *161:50 *211:12 5.10087e-06
26 *180:12 *211:14 4.52638e-05
27 *183:18 *211:14 8.25592e-06
28 *184:18 *211:14 0
29 *190:14 *211:14 5.3529e-05
30 *190:22 *211:14 0.00020433
31 *193:14 *211:12 1.40196e-06
32 *194:10 *211:12 0
33 *197:16 *211:14 3.69807e-05
34 *202:8 *211:20 9.55724e-05
35 *202:12 grant[53] 0.000435195
36 *202:12 *211:20 1.02313e-06
37 *203:18 *211:14 0.000143235
*RES
1 *521:ZN *211:12 17.8929 
2 *211:12 *211:14 64.3215 
3 *211:14 *211:20 14.9643 
4 *211:20 grant[53] 51.4286 
*END

*D_NET *212 0.00276709
*CONN
*P grant[54] O
*I *522:ZN O *D NOR2_X1
*CAP
1 grant[54] 0.000132224
2 *522:ZN 0.000193491
3 *212:14 0.000658907
4 *212:12 0.000720174
5 grant[54] grant[55] 0.000103041
6 grant[36] *212:14 2.03457e-05
7 grant[41] *212:12 5.83791e-05
8 grant[49] *212:12 0.000117156
9 grant[52] *212:14 0.000205296
10 grant[53] grant[54] 0.000103041
11 *162:53 *212:12 5.03617e-05
12 *172:12 *212:14 0.000170854
13 *177:8 *212:12 7.92563e-05
14 *193:16 *212:12 1.86809e-06
15 *207:12 *212:14 0.000152694
*RES
1 *522:ZN *212:12 40.4286 
2 *212:12 *212:14 63.3572 
3 *212:14 grant[54] 27.0357 
*END

*D_NET *213 0.00410838
*CONN
*P grant[55] O
*I *523:ZN O *D NOR2_X1
*CAP
1 grant[55] 0.000424756
2 *523:ZN 1.67174e-05
3 *213:12 0.000424756
4 *213:10 0.000347484
5 *213:8 0.000364201
6 grant[55] *259:5 0.000148472
7 *213:10 *215:10 1.01361e-05
8 *213:10 *229:70 0.000260435
9 *213:10 *229:118 0.000215207
10 *213:10 *237:23 1.26217e-05
11 *213:10 *277:33 5.41175e-06
12 grant[53] grant[55] 6.64591e-05
13 grant[54] grant[55] 0.000103041
14 *128:10 *213:10 4.13453e-05
15 *128:19 *213:10 0.000134598
16 *128:30 *213:10 5.11191e-06
17 *151:10 *213:10 0.000105045
18 *161:8 *213:10 0.000111339
19 *161:22 *213:10 0.000379129
20 *162:27 *213:8 8.90245e-06
21 *167:6 grant[55] 0.000454496
22 *187:30 *213:10 6.71842e-05
23 *195:8 *213:8 9.65418e-06
24 *196:14 *213:10 0.000294009
25 *198:10 *213:10 2.10393e-05
26 *202:8 grant[55] 3.66772e-05
27 *211:20 grant[55] 4.01482e-05
*RES
1 *523:ZN *213:8 12.25 
2 *213:8 *213:10 66.0715 
3 *213:10 *213:12 5 
4 *213:12 grant[55] 73.0357 
*END

*D_NET *214 0.00314493
*CONN
*P grant[56] O
*I *524:ZN O *D NOR2_X1
*CAP
1 grant[56] 7.29726e-05
2 *524:ZN 0.000151168
3 *214:10 0.000854925
4 *214:8 0.000933121
5 grant[56] grant[61] 1.20712e-06
6 grant[56] *230:122 0.000169374
7 *214:8 *225:8 6.27736e-05
8 *214:8 *247:7 0.000223916
9 *214:10 *224:16 0.000290928
10 *214:10 *238:15 0
11 *214:10 *295:15 0
12 grant[22] *214:8 0.000164761
13 grant[36] *214:10 0
14 grant[51] grant[56] 1.3917e-06
15 *172:12 *214:10 0
16 *174:16 *214:8 1.85634e-05
17 *183:20 *214:8 3.04473e-05
18 *202:14 *214:10 0
19 *204:18 grant[56] 0.000169379
*RES
1 *524:ZN *214:8 39.25 
2 *214:8 *214:10 74.2143 
3 *214:10 grant[56] 21.0357 
*END

*D_NET *215 0.0043262
*CONN
*P grant[57] O
*I *525:ZN O *D NOR2_X1
*CAP
1 grant[57] 0.000410673
2 *525:ZN 6.87197e-06
3 *215:12 0.000410673
4 *215:10 0.000942855
5 *215:8 0.000949726
6 grant[57] index[0] 0.000222933
7 grant[57] *249:5 6.1284e-05
8 *215:8 *275:27 6.48216e-07
9 *215:10 *334:A4 6.88366e-06
10 *215:10 *370:A3 2.2921e-05
11 *215:10 *373:A 0
12 *215:10 *220:22 3.98918e-06
13 *215:10 *231:8 6.19458e-05
14 *215:10 *231:14 1.72405e-05
15 *215:10 *241:11 4.16485e-05
16 *215:10 *246:11 0.000122035
17 *215:10 *277:23 2.96955e-05
18 *215:10 *277:49 0
19 *215:10 *277:55 1.15464e-05
20 *215:10 *278:19 6.94703e-06
21 *215:10 *282:17 9.20459e-05
22 *215:10 *286:31 1.20583e-05
23 *215:10 *293:9 2.80513e-05
24 *215:10 *293:20 7.65033e-06
25 *215:10 *294:27 4.92863e-06
26 *215:10 *294:60 0
27 grant[44] grant[57] 0.000340779
28 *437:B1 *215:10 2.89018e-05
29 *499:A3 *215:10 0
30 *525:A1 *215:8 7.19036e-06
31 *69:12 *215:10 0.000105038
32 *126:35 *215:10 5.42801e-06
33 *150:12 *215:10 1.62643e-06
34 *195:10 *215:10 0
35 *196:14 *215:10 7.9361e-06
36 *198:10 *215:10 0.00026419
37 *200:10 *215:10 7.97275e-05
38 *213:10 *215:10 1.01361e-05
*RES
1 *525:ZN *215:8 10.75 
2 *215:8 *215:10 110.179 
3 *215:10 *215:12 5 
4 *215:12 grant[57] 70.5357 
*END

*D_NET *216 0.00384178
*CONN
*P grant[58] O
*I *526:ZN O *D NOR2_X1
*CAP
1 grant[58] 0.000166616
2 *526:ZN 0.000132191
3 *216:24 0.000386202
4 *216:18 0.000616364
5 *216:16 0.000528969
6 grant[58] grant[59] 1.3917e-06
7 grant[58] *259:5 0.000156622
8 grant[58] *291:13 0.000356614
9 *216:16 *217:12 5.48953e-05
10 *216:16 *221:16 7.72537e-06
11 *216:16 *275:29 3.20449e-05
12 *216:18 index[2] 0.000429054
13 *216:18 *448:A1 0
14 *216:18 *227:91 0
15 *216:18 *275:29 3.27779e-05
16 *481:A *216:18 7.34989e-06
17 *493:A2 *216:16 6.37271e-05
18 *526:A2 *216:16 1.73151e-05
19 *529:A1 *216:16 8.87679e-06
20 *529:A2 *216:16 7.19036e-06
21 *11:87 *216:16 5.93124e-05
22 *143:41 *216:18 0
23 *160:14 *216:18 3.53273e-05
24 *160:23 *216:18 9.01846e-07
25 *167:10 *216:24 3.68407e-05
26 *182:10 *216:16 5.54369e-05
27 *200:16 *216:18 0.000404371
28 *206:12 *216:24 0.000243659
*RES
1 *526:ZN *216:16 35.3929 
2 *216:16 *216:18 62.25 
3 *216:18 *216:24 35.3572 
4 *216:24 grant[58] 33.0357 
*END

*D_NET *217 0.00372436
*CONN
*P grant[59] O
*I *527:ZN O *D NOR2_X1
*CAP
1 grant[59] 0.000563643
2 *527:ZN 0.000219781
3 *217:12 0.000783423
4 grant[59] *257:5 0.000465569
5 grant[59] *280:13 3.30047e-06
6 grant[59] *280:17 0
7 grant[59] *291:13 0.00118862
8 *217:12 *237:29 8.56923e-06
9 *217:12 *260:15 0
10 grant[58] grant[59] 1.3917e-06
11 *526:A2 *217:12 1.26998e-05
12 *20:60 *217:12 7.16887e-06
13 *20:75 *217:12 4.40064e-06
14 *21:46 *217:12 3.82563e-06
15 *153:19 *217:12 0.000332544
16 *154:8 *217:12 5.52959e-06
17 *181:12 *217:12 4.7369e-05
18 *182:10 *217:12 2.16263e-05
19 *216:16 *217:12 5.48953e-05
*RES
1 *527:ZN *217:12 46.3572 
2 *217:12 grant[59] 109.036 
*END

*D_NET *218 0.00185862
*CONN
*P grant[5] O
*I *458:ZN O *D NOR3_X1
*CAP
1 grant[5] 0.000420377
2 *458:ZN 0.000156176
3 *218:14 0.000576553
4 grant[5] grant[63] 2.05033e-06
5 grant[5] *222:16 0.000150366
6 *218:14 *232:32 1.76665e-06
7 *218:14 *232:47 9.52613e-06
8 grant[21] grant[5] 2.05033e-06
9 grant[52] grant[5] 1.59582e-06
10 *455:A3 *218:14 1.87637e-06
11 *488:A2 grant[5] 1.87369e-06
12 *148:14 *218:14 1.73125e-05
13 *160:80 grant[5] 1.78038e-05
14 *184:18 *218:14 1.18002e-05
15 *193:14 grant[5] 8.26873e-05
16 *193:16 grant[5] 0.000118933
17 *194:10 *218:14 1.20501e-05
18 *211:12 *218:14 1.49661e-05
19 *211:14 *218:14 0.000258856
*RES
1 *458:ZN *218:14 36.0714 
2 *218:14 grant[5] 59.0357 
*END

*D_NET *219 0.00519365
*CONN
*P grant[60] O
*I *528:ZN O *D NOR2_X1
*CAP
1 grant[60] 0.000603088
2 *528:ZN 0
3 *219:10 0.000603088
4 *219:8 0.000825093
5 *219:6 0.000825093
6 grant[60] *272:5 0.000464605
7 grant[60] *279:5 0
8 *219:8 *331:A3 2.90163e-06
9 *219:8 *476:A1 5.48953e-05
10 *219:8 *230:32 2.37916e-06
11 *219:8 *235:21 8.6029e-05
12 *219:8 *235:27 2.31472e-05
13 *219:8 *257:13 2.66066e-05
14 *219:8 *258:27 2.3767e-06
15 grant[38] grant[60] 0.000275383
16 *317:A *219:8 1.33704e-05
17 *374:A *219:8 0
18 *411:B *219:8 0.000153855
19 *411:C2 *219:8 0.000128655
20 *416:B1 *219:8 6.07016e-06
21 *416:B2 *219:8 2.48069e-05
22 *418:B1 *219:8 2.29188e-05
23 *425:B2 *219:8 2.54476e-05
24 *428:A1 *219:8 0.000376353
25 *19:8 *219:8 1.11258e-05
26 *21:8 *219:8 9.49605e-05
27 *21:23 *219:8 0.000217997
28 *32:10 *219:8 1.61249e-06
29 *32:21 *219:8 1.37205e-05
30 *33:25 *219:8 0
31 *34:19 *219:8 0.000113789
32 *155:8 *219:8 9.91569e-06
33 *155:17 *219:8 6.99525e-06
34 *165:12 *219:8 9.76118e-06
35 *183:10 *219:8 0.000167613
*RES
1 *528:ZN *219:6 10 
2 *219:6 *219:8 112.214 
3 *219:8 *219:10 5 
4 *219:10 grant[60] 95.5358 
*END

*D_NET *220 0.00776813
*CONN
*P grant[61] O
*I *351:A I *D AOI211_X1
*I *341:ZN O *D AND2_X1
*CAP
1 grant[61] 0.000324432
2 *351:A 1.49538e-05
3 *341:ZN 2.37755e-05
4 *220:22 0.00036965
5 *220:16 0.000381664
6 *220:14 0.000336446
7 *220:12 0.000428346
8 *220:10 0.000467076
9 grant[61] index[3] 2.05033e-06
10 grant[61] *230:122 0.00060371
11 grant[61] *241:5 3.23723e-07
12 grant[61] *263:13 2.44716e-05
13 grant[61] *295:17 0.000627342
14 *351:A *290:33 2.83315e-05
15 *220:10 *252:9 5.06473e-05
16 *220:10 *282:25 5.48932e-05
17 *220:10 *287:21 0
18 *220:10 *290:33 1.83053e-06
19 *220:12 *354:A 3.34509e-06
20 *220:12 *357:A 0
21 *220:12 *245:13 0.000115609
22 *220:12 *249:11 0
23 *220:12 *252:9 0.00114339
24 *220:12 *274:17 0
25 *220:12 *282:25 0.00131989
26 *220:16 *357:A 1.37673e-05
27 *220:16 *358:A 6.84742e-06
28 *220:16 *241:13 0.000684837
29 *220:16 *242:13 0.000246473
30 *220:16 *242:23 0.000323474
31 *220:16 *242:25 0
32 *220:16 *253:9 7.30645e-06
33 *220:16 *263:51 3.09149e-05
34 *220:22 *241:11 4.92863e-06
35 grant[56] grant[61] 1.20712e-06
36 *351:B *351:A 2.83315e-05
37 *359:A *220:12 2.03675e-05
38 *359:B2 *220:16 0
39 *360:C2 *220:12 6.03486e-06
40 *24:12 *220:12 2.67622e-05
41 *69:12 *220:22 6.21255e-06
42 *204:18 grant[61] 3.45018e-05
43 *215:10 *220:22 3.98918e-06
*RES
1 *341:ZN *220:10 14.2143 
2 *220:10 *220:12 94.5715 
3 *220:12 *220:14 5 
4 *220:14 *220:16 70.75 
5 *220:16 *220:22 14.3214 
6 *220:22 grant[61] 68.5357 
7 *220:10 *351:A 12.75 
*END

*D_NET *221 0.00279637
*CONN
*P grant[62] O
*I *529:ZN O *D NOR2_X1
*CAP
1 grant[62] 0.000779908
2 *529:ZN 0.000254159
3 *221:16 0.00103407
4 grant[62] grant[6] 6.94975e-05
5 grant[62] grant[7] 1.28122e-06
6 grant[62] valid 0
7 grant[62] *239:5 0
8 grant[62] *257:5 1.28122e-06
9 grant[62] *269:7 0
10 grant[62] *280:13 0.000265691
11 grant[62] *291:11 2.05033e-06
12 *221:16 *257:11 5.95537e-05
13 *221:16 *257:13 0.000271522
14 *221:16 *275:29 7.19036e-06
15 *510:A2 *221:16 0
16 *159:19 *221:16 0
17 *168:10 *221:16 4.2447e-05
18 *216:16 *221:16 7.72537e-06
*RES
1 *529:ZN *221:16 46.6786 
2 *221:16 grant[62] 98.0358 
*END

*D_NET *222 0.00491073
*CONN
*P grant[63] O
*I *530:Z O *D CLKBUF_X1
*CAP
1 grant[63] 1.23635e-05
2 *530:Z 0
3 *222:16 0.000399987
4 *222:14 0.000402704
5 *222:12 0.000711715
6 *222:10 0.000696635
7 *222:8 0.000370319
8 *222:6 0.000370319
9 grant[63] grant[9] 1.20712e-06
10 *222:8 *298:A1 6.82967e-05
11 *222:8 *259:17 0.000346445
12 *222:12 *321:A3 3.65322e-06
13 *222:12 *254:25 4.40334e-06
14 *222:12 *256:23 3.30047e-06
15 *222:12 *258:13 0
16 *222:12 *265:37 0.0003061
17 *222:16 grant[9] 0.000553423
18 grant[5] grant[63] 2.05033e-06
19 grant[5] *222:16 0.000150366
20 *314:A2 *222:12 0
21 *315:A1 *222:12 0
22 *345:B1 *222:8 0.000107955
23 *420:B1 *222:8 4.96959e-05
24 *432:A2 *222:12 0
25 *443:B1 *222:12 4.79202e-06
26 *443:C1 *222:12 5.33113e-06
27 *485:A2 *222:12 1.74934e-05
28 *502:A2 *222:12 5.90251e-06
29 *502:A3 *222:12 7.72243e-06
30 *505:A3 *222:16 0
31 *506:A3 *222:12 7.19036e-06
32 *515:A *222:12 0
33 *521:A1 *222:16 1.85634e-05
34 *12:25 *222:8 2.00032e-05
35 *15:36 *222:8 0
36 *15:36 *222:12 0
37 *17:14 *222:12 0
38 *22:12 *222:12 2.08416e-06
39 *63:6 *222:12 9.31661e-05
40 *147:22 *222:16 1.26998e-05
41 *161:56 *222:12 5.45271e-05
42 *161:56 *222:16 1.91498e-06
43 *173:14 *222:12 6.56007e-06
44 *176:6 *222:16 3.89715e-05
45 *178:6 *222:16 5.91873e-06
46 *191:14 *222:12 2.77721e-05
47 *191:14 *222:16 7.72537e-06
48 *193:14 *222:16 3.19164e-06
49 *211:12 *222:16 8.26038e-06
*RES
1 *530:Z *222:6 10 
2 *222:6 *222:8 56.5715 
3 *222:8 *222:10 5 
4 *222:10 *222:12 88.25 
5 *222:12 *222:14 1.60714 
6 *222:14 *222:16 64.25 
7 *222:16 grant[63] 1.46429 
*END

*D_NET *223 0.00250291
*CONN
*P grant[6] O
*I *460:ZN O *D NOR3_X1
*CAP
1 grant[6] 8.32694e-05
2 *460:ZN 0.000198623
3 *223:10 0.000587374
4 *223:8 0.000702727
5 grant[6] grant[7] 6.94975e-05
6 *223:8 *265:9 5.80888e-05
7 *223:8 *268:15 0.000202421
8 *223:10 *224:16 0.000409795
9 grant[13] *223:8 0
10 grant[36] *223:8 3.02627e-05
11 grant[62] grant[6] 6.94975e-05
12 *202:14 *223:10 4.44121e-05
13 *207:8 *223:8 4.69445e-05
*RES
1 *460:ZN *223:8 41.25 
2 *223:8 *223:10 61.3215 
3 *223:10 grant[6] 19.5357 
*END

*D_NET *224 0.00357321
*CONN
*P grant[7] O
*I *462:ZN O *D NOR3_X1
*CAP
1 grant[7] 9.07781e-05
2 *462:ZN 0.000735364
3 *224:16 0.000576099
4 *224:14 0.00122068
5 grant[7] *269:7 7.43684e-05
6 *224:14 *226:14 7.52322e-06
7 *224:14 *268:29 8.99414e-05
8 *224:14 *277:33 6.94703e-06
9 grant[62] grant[7] 1.28122e-06
10 grant[6] grant[7] 6.94975e-05
11 *161:44 *224:14 5.3779e-09
12 *214:10 *224:16 0.000290928
13 *223:10 *224:16 0.000409795
*RES
1 *462:ZN *224:14 45.5929 
2 *224:14 *224:16 62.5357 
3 *224:16 grant[7] 20.5357 
*END

*D_NET *225 0.00126235
*CONN
*P grant[8] O
*I *464:ZN O *D NOR3_X1
*CAP
1 grant[8] 7.21899e-05
2 *464:ZN 0.000293921
3 *225:8 0.000366111
4 *225:8 *232:80 1.67775e-05
5 *225:8 *232:90 2.39679e-06
6 grant[18] grant[8] 4.51152e-06
7 grant[20] grant[8] 0.000115699
8 grant[22] grant[8] 0
9 grant[22] *225:8 0.000207217
10 *150:33 *225:8 7.19036e-06
11 *174:16 *225:8 6.85774e-07
12 *179:6 grant[8] 0.000112878
13 *179:6 *225:8 0
14 *214:8 *225:8 6.27736e-05
*RES
1 *464:ZN *225:8 42.7143 
2 *225:8 grant[8] 13.2143 
*END

*D_NET *226 0.00432852
*CONN
*P grant[9] O
*I *467:ZN O *D NOR3_X1
*CAP
1 grant[9] 0.000228737
2 *467:ZN 0.000346888
3 *226:22 0.000393106
4 *226:14 0.000335856
5 *226:8 0.000518375
6 *226:8 *448:A1 1.26946e-05
7 *226:8 *229:14 0
8 *226:8 *230:10 0
9 *226:8 *237:23 5.38636e-06
10 *226:8 *277:33 3.20708e-05
11 *226:14 *454:A2 5.48932e-05
12 *226:14 *277:33 0.000135551
13 *226:14 *277:49 0.0001747
14 *226:14 *288:15 0.000258407
15 *226:22 *230:118 0
16 *226:22 *239:23 6.93881e-06
17 *226:22 *258:13 0.000113637
18 grant[3] grant[9] 1.3917e-06
19 grant[63] grant[9] 1.20712e-06
20 *453:A3 *226:8 0
21 *466:A3 *226:8 3.81944e-05
22 *467:A3 *226:8 6.20652e-06
23 *121:36 *226:8 4.16485e-05
24 *121:47 *226:8 6.26883e-05
25 *126:35 *226:14 4.07945e-05
26 *145:12 *226:8 0
27 *145:12 *226:14 0
28 *145:18 *226:14 5.73809e-05
29 *149:10 *226:14 1.28391e-06
30 *152:8 *226:8 2.70766e-05
31 *152:26 *226:8 2.5638e-05
32 *156:10 *226:8 0
33 *160:14 *226:8 2.90163e-06
34 *160:95 *226:22 4.11048e-05
35 *160:97 *226:22 8.43376e-06
36 *176:6 grant[9] 0.000553423
37 *196:16 *226:22 0.000240964
38 *222:16 grant[9] 0.000553423
39 *224:14 *226:14 7.52322e-06
*RES
1 *467:ZN *226:8 48.8929 
2 *226:8 *226:14 36.8929 
3 *226:14 *226:22 37.8929 
4 *226:22 grant[9] 51.5357 
*END

*D_NET *227 0.00716651
*CONN
*P index[0] O
*I *470:A1 I *D NAND4_X1
*I *448:A1 I *D NAND4_X1
*I *466:A1 I *D NAND4_X1
*I *474:A1 I *D NAND4_X1
*I *478:A1 I *D NAND4_X1
*I *453:A1 I *D NAND4_X1
*I *457:A1 I *D NAND4_X1
*I *461:A1 I *D NAND4_X1
*I *392:Z O *D BUF_X2
*CAP
1 index[0] 0.000255676
2 *470:A1 5.13385e-05
3 *448:A1 8.10891e-05
4 *466:A1 0
5 *474:A1 0
6 *478:A1 2.75459e-05
7 *453:A1 9.74974e-06
8 *457:A1 0
9 *461:A1 0
10 *392:Z 0.000169039
11 *227:91 0.000121229
12 *227:84 4.73437e-05
13 *227:73 5.87142e-05
14 *227:54 0.000255676
15 *227:52 0.000632428
16 *227:50 0.000800592
17 *227:33 0.000291137
18 *227:26 0.000145379
19 *227:20 8.32647e-05
20 *227:14 0.000242664
21 *227:10 0.000387967
22 index[0] *249:5 0.000223492
23 *448:A1 *230:97 9.0137e-05
24 *448:A1 *277:33 6.88366e-06
25 *453:A1 *453:A2 2.52965e-06
26 *453:A1 *251:9 4.21607e-06
27 *470:A1 *470:A2 8.43215e-07
28 *227:10 *470:A4 4.77786e-06
29 *227:14 *230:16 3.41101e-06
30 *227:14 *230:24 4.50941e-05
31 *227:20 *228:55 3.76506e-05
32 *227:20 *297:16 0.00016439
33 *227:26 *453:A2 6.48216e-07
34 *227:26 *228:55 3.02372e-05
35 *227:26 *228:61 4.32298e-05
36 *227:33 *251:9 0
37 *227:50 *251:5 2.24381e-05
38 *227:50 *251:9 0
39 *227:73 *297:16 0.000100797
40 grant[57] index[0] 0.000222933
41 *391:B2 *227:10 0
42 *392:A *227:10 7.16188e-07
43 *430:A *227:20 7.05197e-05
44 *430:A *227:26 5.06473e-05
45 *466:A3 *448:A1 4.7875e-06
46 *468:A3 *470:A1 1.67775e-05
47 *468:A3 *227:14 0
48 *472:A3 *227:14 2.35207e-05
49 *481:A *478:A1 3.31199e-05
50 *481:A *227:84 1.87418e-05
51 *481:A *227:91 2.75346e-06
52 *527:A2 *227:10 0
53 *121:12 *227:14 0
54 *126:35 *227:33 8.48135e-05
55 *126:97 *227:26 1.72426e-05
56 *139:22 *227:14 1.18273e-05
57 *141:34 *227:20 0.000142783
58 *141:34 *227:73 8.06366e-05
59 *141:52 *448:A1 9.0137e-05
60 *143:41 *448:A1 4.97191e-06
61 *143:41 *478:A1 2.86239e-05
62 *143:41 *227:84 1.6345e-05
63 *143:41 *227:91 5.91545e-05
64 *149:10 *227:33 4.02344e-05
65 *152:8 *448:A1 1.52083e-06
66 *154:8 *470:A1 1.18547e-06
67 *154:8 *227:10 0
68 *156:10 *227:73 3.34324e-06
69 *160:80 *227:52 2.16263e-05
70 *162:53 *227:52 0.000190463
71 *162:64 *227:52 0.000150804
72 *165:20 *227:26 1.30565e-05
73 *165:20 *227:33 1.55356e-05
74 *165:22 *227:33 7.19036e-06
75 *165:22 *227:50 0.000203823
76 *171:16 *227:52 3.3627e-05
77 *174:18 *227:52 0.000982571
78 *183:18 *227:14 5.08776e-05
79 *189:22 *227:52 1.52977e-05
80 *216:18 *448:A1 0
81 *216:18 *227:91 0
82 *226:8 *448:A1 1.26946e-05
*RES
1 *392:Z *227:10 22 
2 *227:10 *227:14 26.75 
3 *227:14 *227:20 12.7857 
4 *227:20 *227:26 9.89286 
5 *227:26 *461:A1 5 
6 *227:26 *227:33 15.75 
7 *227:33 *457:A1 5 
8 *227:33 *227:50 28.1072 
9 *227:50 *227:52 83.0357 
10 *227:52 *227:54 5 
11 *227:54 index[0] 46.0357 
12 *227:20 *453:A1 11.25 
13 *227:14 *227:73 10.6786 
14 *227:73 *478:A1 9.17857 
15 *227:73 *227:84 1.75 
16 *227:84 *474:A1 5 
17 *227:84 *227:91 5.75 
18 *227:91 *466:A1 5 
19 *227:91 *448:A1 28.0357 
20 *227:10 *470:A1 11.0714 
*END

*D_NET *228 0.006281
*CONN
*P index[1] O
*I *470:A2 I *D NAND4_X1
*I *453:A2 I *D NAND4_X1
*I *461:A2 I *D NAND4_X1
*I *478:A2 I *D NAND4_X1
*I *447:A I *D INV_X4
*I *444:B I *D AOI211_X1
*I *413:ZN O *D OAI21_X4
*CAP
1 index[1] 0.0006153
2 *470:A2 7.87643e-05
3 *453:A2 1.35752e-05
4 *461:A2 6.61462e-06
5 *478:A2 0.000101508
6 *447:A 0
7 *444:B 0
8 *413:ZN 0.000103951
9 *228:73 0.00066524
10 *228:67 0.000750576
11 *228:65 0.00073728
12 *228:61 6.22114e-05
13 *228:55 6.96965e-05
14 *228:36 0.000202507
15 *228:29 0.000125787
16 *228:27 0.000166451
17 *228:14 0.000129682
18 index[1] *284:5 0.000401469
19 *461:A2 *268:39 4.32144e-07
20 *470:A2 *470:A4 3.27669e-05
21 *470:A2 *237:29 5.65317e-05
22 *470:A2 *251:9 3.05041e-06
23 *470:A2 *260:23 3.74512e-05
24 *478:A2 *229:37 2.50453e-05
25 *478:A2 *261:9 4.85473e-05
26 *228:14 *251:17 2.87672e-05
27 *228:14 *256:13 1.00295e-05
28 *228:14 *268:43 1.40196e-06
29 *228:29 *251:9 9.63598e-05
30 *228:36 *251:9 0.000107293
31 *228:55 *251:9 3.03665e-05
32 *228:55 *297:16 6.36399e-05
33 *228:61 *297:16 6.76033e-05
34 *228:65 *454:A1 0
35 *228:65 *297:16 3.472e-05
36 *228:67 *331:A2 0
37 *228:67 *334:A1 0
38 *228:67 *454:A1 0
39 *228:67 *265:35 0.000223563
40 *228:67 *296:9 8.60555e-05
41 *228:67 *297:16 4.18393e-05
42 *338:A3 *228:67 8.13181e-06
43 *423:A *470:A2 6.56185e-06
44 *450:A *228:27 1.0303e-05
45 *450:B *228:29 3.93453e-05
46 *453:A1 *453:A2 2.52965e-06
47 *470:A1 *470:A2 8.43215e-07
48 *485:A2 *228:67 9.05228e-06
49 *502:A3 *228:67 8.06325e-05
50 *21:31 *228:14 2.39679e-06
51 *21:31 *228:27 1.08381e-05
52 *21:35 *470:A2 0.000207788
53 *21:35 *228:27 2.28364e-05
54 *22:12 *228:67 4.47534e-05
55 *36:14 *228:67 4.32843e-05
56 *78:10 *228:14 0
57 *121:12 *228:29 0
58 *121:12 *228:36 0
59 *126:10 *228:65 5.46453e-05
60 *126:35 *461:A2 8.43215e-07
61 *126:97 *228:61 1.26014e-05
62 *126:97 *228:65 2.54476e-05
63 *129:8 *228:14 0.000110919
64 *129:8 *228:27 2.39679e-06
65 *138:12 *228:14 2.95203e-05
66 *139:14 *228:14 3.5628e-06
67 *141:34 *228:36 2.20086e-05
68 *141:34 *228:55 4.81297e-06
69 *145:24 *228:67 6.47253e-05
70 *165:20 *453:A2 3.23723e-07
71 *165:20 *461:A2 7.19036e-06
72 *166:20 *228:67 0
73 *173:14 *228:67 1.38453e-05
74 *201:12 *228:27 6.70962e-05
75 *204:10 *478:A2 3.39254e-05
76 *209:10 *228:67 0
77 *227:20 *228:55 3.76506e-05
78 *227:26 *453:A2 6.48216e-07
79 *227:26 *228:55 3.02372e-05
80 *227:26 *228:61 4.32298e-05
*RES
1 *413:ZN *228:14 29.4643 
2 *228:14 *444:B 5 
3 *228:14 *228:27 14.8929 
4 *228:27 *228:29 9.25 
5 *228:29 *447:A 5 
6 *228:29 *228:36 10.25 
7 *228:36 *478:A2 28.6429 
8 *228:36 *228:55 11.8929 
9 *228:55 *228:61 4.64286 
10 *228:61 *228:65 6.42857 
11 *228:65 *228:67 85.2322 
12 *228:67 *228:73 9.73214 
13 *228:73 index[1] 82.5357 
14 *228:61 *461:A2 10.75 
15 *228:55 *453:A2 11.25 
16 *228:27 *470:A2 30.2143 
*END

*D_NET *229 0.00503105
*CONN
*P index[2] O
*I *455:A1 I *D NAND3_X1
*I *459:A1 I *D NAND3_X1
*I *457:A3 I *D NAND4_X1
*I *461:A3 I *D NAND4_X1
*I *474:A3 I *D NAND4_X1
*I *476:A1 I *D NAND3_X1
*I *472:A1 I *D NAND3_X1
*I *478:A3 I *D NAND4_X1
*I *424:ZN O *D INV_X2
*CAP
1 index[2] 0.000414255
2 *455:A1 1.39728e-05
3 *459:A1 3.12189e-05
4 *457:A3 0
5 *461:A3 4.87658e-05
6 *474:A3 0
7 *476:A1 1.97244e-05
8 *472:A1 4.78273e-06
9 *478:A3 1.16436e-05
10 *424:ZN 1.76438e-05
11 *229:118 0.000473356
12 *229:90 6.75897e-05
13 *229:79 7.74415e-05
14 *229:70 0.000161587
15 *229:66 0.000164983
16 *229:37 0.000110901
17 *229:16 0.000127901
18 *229:14 8.06189e-05
19 *229:8 0.000116504
20 index[2] *275:11 2.05033e-06
21 index[2] *275:13 0.000529786
22 index[2] *275:27 2.52965e-06
23 index[2] *277:7 1.3917e-06
24 index[2] *277:23 0.000214131
25 index[2] *277:29 2.16072e-06
26 *461:A3 *232:32 0
27 *472:A1 *230:24 8.26038e-06
28 *472:A1 *230:32 2.75346e-06
29 *476:A1 *476:A2 2.39679e-06
30 *476:A1 *230:32 5.11191e-06
31 *478:A3 *230:16 8.26038e-06
32 *229:14 *230:10 4.24381e-05
33 *229:16 *230:12 2.39679e-06
34 *229:16 *230:16 1.19008e-05
35 *229:37 *230:24 4.31997e-05
36 *229:37 *261:9 1.66988e-05
37 *229:66 *251:9 0
38 *229:70 *277:33 9.88445e-05
39 *229:79 *232:32 0
40 *229:118 *277:33 5.4443e-05
41 grant[39] index[2] 0
42 *430:A *229:14 6.56029e-05
43 *455:A2 *455:A1 2.6988e-05
44 *455:A2 *459:A1 7.338e-06
45 *455:A2 *229:79 2.39679e-06
46 *455:A2 *229:90 1.9263e-05
47 *455:A3 *459:A1 1.26995e-06
48 *459:A2 *459:A1 2.8458e-05
49 *459:A3 *459:A1 5.34003e-05
50 *478:A2 *229:37 2.50453e-05
51 *121:12 *229:8 3.37286e-06
52 *121:36 *229:8 4.52011e-06
53 *121:36 *229:66 5.93278e-05
54 *126:35 *461:A3 6.68799e-05
55 *126:35 *229:79 1.74934e-05
56 *139:22 *229:8 1.19839e-05
57 *139:22 *229:66 9.50648e-05
58 *141:34 *229:14 2.3905e-05
59 *141:34 *229:16 7.72792e-06
60 *141:41 *229:16 4.97191e-06
61 *143:12 *472:A1 1.21774e-06
62 *143:41 *472:A1 1.87369e-06
63 *143:41 *476:A1 1.68643e-06
64 *143:41 *478:A3 3.48132e-06
65 *143:41 *229:16 9.98572e-06
66 *143:41 *229:37 9.41418e-05
67 *147:12 *459:A1 5.31461e-05
68 *155:8 *476:A1 4.16464e-05
69 *156:10 *229:14 1.52083e-06
70 *158:10 *229:37 1.88334e-06
71 *165:20 *461:A3 8.92081e-05
72 *165:20 *229:79 6.97169e-05
73 *165:20 *229:90 7.29164e-07
74 *165:22 *455:A1 2.87403e-05
75 *165:22 *229:79 1.68643e-06
76 *165:22 *229:90 1.37504e-05
77 *187:30 *229:118 5.54348e-05
78 *195:14 index[2] 7.31076e-05
79 *196:14 *461:A3 3.26648e-06
80 *200:16 index[2] 4.12459e-06
81 *204:10 *229:37 4.46014e-06
82 *213:10 *229:70 0.000260435
83 *213:10 *229:118 0.000215207
84 *216:18 index[2] 0.000429054
85 *219:8 *476:A1 5.48953e-05
86 *226:8 *229:14 0
*RES
1 *424:ZN *229:8 7.17857 
2 *229:8 *229:14 17.0357 
3 *229:14 *229:16 3.75 
4 *229:16 *478:A3 6.67857 
5 *229:16 *229:37 23.5357 
6 *229:37 *472:A1 5.75 
7 *229:37 *476:A1 18.7143 
8 *229:14 *474:A3 5 
9 *229:8 *229:66 13.75 
10 *229:66 *229:70 18.8214 
11 *229:70 *461:A3 13.75 
12 *229:70 *229:79 7.25 
13 *229:79 *457:A3 5 
14 *229:79 *229:90 3.42857 
15 *229:90 *459:A1 21.0179 
16 *229:90 *455:A1 7.75 
17 *229:66 *229:118 16.7857 
18 *229:118 index[2] 73.5357 
*END

*D_NET *230 0.00611314
*CONN
*P index[3] O
*I *463:A2 I *D NAND3_X1
*I *466:A4 I *D NAND4_X1
*I *474:A4 I *D NAND4_X1
*I *478:A4 I *D NAND4_X1
*I *472:A2 I *D NAND3_X1
*I *476:A2 I *D NAND3_X1
*I *468:A2 I *D NAND3_X1
*I *470:A4 I *D NAND4_X1
*I *430:ZN O *D INV_X2
*CAP
1 index[3] 2.18516e-05
2 *463:A2 1.17918e-05
3 *466:A4 0
4 *474:A4 0
5 *478:A4 0
6 *472:A2 0
7 *476:A2 6.50469e-06
8 *468:A2 0
9 *470:A4 3.70145e-05
10 *430:ZN 1.53536e-05
11 *230:122 0.000282776
12 *230:120 0.000260924
13 *230:118 0.000555748
14 *230:116 0.000643234
15 *230:97 0.00021213
16 *230:82 0.000157272
17 *230:38 0.000114134
18 *230:32 0.000105874
19 *230:24 0.000110598
20 *230:16 0.0001335
21 *230:12 5.1309e-05
22 *230:10 6.59305e-05
23 index[3] *241:5 2.60945e-06
24 index[3] *242:11 4.24381e-05
25 *470:A4 *237:29 8.19658e-05
26 *230:32 *257:13 1.16042e-05
27 *230:116 *251:9 0
28 *230:118 *239:19 0
29 *230:118 *239:23 0
30 grant[56] *230:122 0.000169374
31 grant[61] index[3] 2.05033e-06
32 grant[61] *230:122 0.00060371
33 *430:A *230:16 6.48216e-07
34 *445:A3 *230:116 1.66988e-05
35 *448:A1 *230:97 9.0137e-05
36 *455:A3 *230:116 4.24381e-05
37 *457:A2 *230:97 1.87701e-05
38 *459:A3 *230:97 3.43375e-05
39 *463:A1 *463:A2 2.39679e-06
40 *468:A1 *470:A4 2.39679e-06
41 *468:A1 *230:38 7.19036e-06
42 *468:A3 *470:A4 2.39679e-06
43 *468:A3 *230:38 6.54468e-05
44 *470:A2 *470:A4 3.27669e-05
45 *472:A1 *230:24 8.26038e-06
46 *472:A1 *230:32 2.75346e-06
47 *472:A3 *230:32 8.26038e-06
48 *476:A1 *476:A2 2.39679e-06
49 *476:A1 *230:32 5.11191e-06
50 *478:A3 *230:16 8.26038e-06
51 *11:87 *470:A4 1.28122e-06
52 *11:87 *230:38 9.9032e-06
53 *21:35 *470:A4 1.97744e-05
54 *121:51 *230:82 3.09411e-06
55 *121:51 *230:97 4.02924e-05
56 *121:58 *230:97 3.09143e-06
57 *139:22 *463:A2 2.39679e-06
58 *139:31 *463:A2 1.80284e-05
59 *139:31 *230:116 1.52724e-05
60 *141:41 *230:12 1.68643e-06
61 *141:41 *230:82 2.37026e-05
62 *141:52 *230:82 2.25089e-06
63 *141:52 *230:97 8.35934e-06
64 *143:12 *476:A2 4.79358e-06
65 *143:12 *230:32 6.85774e-07
66 *143:12 *230:38 3.55823e-05
67 *143:41 *476:A2 2.39679e-06
68 *143:41 *230:24 6.33768e-07
69 *143:41 *230:97 5.97339e-06
70 *146:12 *230:118 0
71 *148:14 *230:118 8.50869e-06
72 *148:20 *230:118 0
73 *150:12 *230:116 5.05929e-06
74 *150:18 *230:116 7.11385e-05
75 *155:8 *230:32 2.94435e-05
76 *160:95 *230:118 0
77 *161:22 *463:A2 7.72537e-06
78 *161:22 *230:97 4.04032e-05
79 *161:22 *230:116 2.2287e-05
80 *161:26 *230:116 1.2453e-05
81 *161:44 *230:116 4.24423e-05
82 *164:18 *230:118 0
83 *183:18 *463:A2 2.71958e-06
84 *183:18 *230:12 0
85 *183:18 *230:82 0
86 *184:18 *230:118 0.00121119
87 *193:14 *230:118 0
88 *194:10 *230:118 6.35082e-05
89 *204:18 *230:122 0.000191098
90 *219:8 *230:32 2.37916e-06
91 *226:8 *230:10 0
92 *226:22 *230:118 0
93 *227:10 *470:A4 4.77786e-06
94 *227:14 *230:16 3.41101e-06
95 *227:14 *230:24 4.50941e-05
96 *229:14 *230:10 4.24381e-05
97 *229:16 *230:12 2.39679e-06
98 *229:16 *230:16 1.19008e-05
99 *229:37 *230:24 4.31997e-05
*RES
1 *430:ZN *230:10 17.2857 
2 *230:10 *230:12 0.75 
3 *230:12 *230:16 5.17857 
4 *230:16 *230:24 12.8571 
5 *230:24 *230:32 13.7143 
6 *230:32 *230:38 10.9286 
7 *230:38 *470:A4 21.8214 
8 *230:38 *468:A2 5 
9 *230:32 *476:A2 5.75 
10 *230:24 *472:A2 5 
11 *230:16 *478:A4 5 
12 *230:12 *474:A4 5 
13 *230:10 *230:82 5.75 
14 *230:82 *466:A4 5 
15 *230:82 *230:97 27.1786 
16 *230:97 *463:A2 6.75 
17 *230:97 *230:116 27.9643 
18 *230:116 *230:118 74.2143 
19 *230:118 *230:120 5 
20 *230:120 *230:122 55.25 
21 *230:122 index[3] 12.8214 
*END

*D_NET *231 0.00450922
*CONN
*P index[4] O
*I *454:A2 I *D NOR3_X1
*I *462:A2 I *D NOR3_X1
*I *449:A2 I *D NOR3_X1
*I *452:A2 I *D NOR3_X1
*I *446:A2 I *D NOR3_X1
*I *464:A2 I *D NOR3_X1
*I *456:A2 I *D NOR3_X1
*I *460:A2 I *D NOR3_X1
*I *458:A2 I *D NOR3_X1
*I *433:Z O *D BUF_X1
*CAP
1 index[4] 0.000322064
2 *454:A2 2.1353e-05
3 *462:A2 5.05965e-06
4 *449:A2 2.65147e-05
5 *452:A2 4.98441e-05
6 *446:A2 0
7 *464:A2 1.38981e-05
8 *456:A2 1.26835e-05
9 *460:A2 1.06065e-05
10 *458:A2 0
11 *433:Z 2.63986e-05
12 *231:119 6.80399e-05
13 *231:98 0.000680774
14 *231:94 0.000377337
15 *231:75 0.000104201
16 *231:64 4.75322e-05
17 *231:60 8.85996e-05
18 *231:49 0.000125842
19 *231:38 9.50958e-05
20 *231:27 0.000155217
21 *231:14 0.000175347
22 *231:8 0.000119513
23 index[4] valid 0.00020832
24 index[4] *233:15 2.60945e-06
25 index[4] *240:5 0
26 index[4] *276:13 0
27 index[4] *289:15 0
28 *449:A2 *446:A1 1.40196e-06
29 *449:A2 *449:A1 2.39679e-06
30 *452:A2 *449:A1 1.21072e-05
31 *452:A2 *232:94 6.19272e-06
32 *454:A2 *232:32 3.3131e-07
33 *456:A2 *232:55 1.19839e-05
34 *456:A2 *268:29 1.68643e-06
35 *460:A2 *460:A1 9.76549e-06
36 *460:A2 *232:47 7.72792e-06
37 *462:A2 *232:23 2.39679e-06
38 *462:A2 *232:32 4.79358e-06
39 *464:A2 *232:90 1.82068e-05
40 *464:A2 *251:5 0
41 *231:14 *232:32 3.60726e-05
42 *231:14 *232:47 2.75346e-06
43 *231:27 *232:47 5.12741e-05
44 *231:27 *265:9 1.73151e-05
45 *231:38 *232:55 4.15357e-05
46 *231:49 *232:55 1.72426e-05
47 *231:60 *232:90 0.000116028
48 *231:64 *446:A1 7.72792e-06
49 *231:75 *446:A1 2.75346e-06
50 *231:75 *449:A1 0
51 *231:98 *269:9 0.000214447
52 *231:98 *289:33 7.15244e-06
53 *231:119 *232:32 6.27833e-05
54 grant[25] *231:75 0
55 grant[32] *231:94 1.68643e-06
56 *446:A3 *231:64 1.73151e-05
57 *456:A3 *456:A2 1.67775e-05
58 *458:A3 *231:14 1.41812e-05
59 *460:A3 *460:A2 1.74934e-05
60 *460:A3 *231:27 4.21607e-06
61 *462:A3 *462:A2 2.39679e-06
62 *517:A1 *231:98 0
63 *517:A2 *231:98 0
64 *126:35 *454:A2 3.292e-06
65 *144:35 *449:A2 1.72426e-05
66 *145:12 *454:A2 2.29579e-06
67 *145:18 *454:A2 4.18985e-05
68 *147:12 *231:14 2.37137e-05
69 *148:14 *231:27 1.28334e-05
70 *149:10 *454:A2 4.80378e-06
71 *150:33 *464:A2 2.39679e-06
72 *160:68 *231:98 0.000153313
73 *160:74 *231:27 1.32805e-05
74 *160:74 *231:38 2.80478e-06
75 *160:74 *231:49 4.71885e-05
76 *162:64 *231:49 1.1429e-05
77 *162:64 *231:60 1.25784e-05
78 *162:70 *449:A2 5.48953e-05
79 *162:70 *452:A2 1.62382e-06
80 *162:70 *231:60 0.000101255
81 *163:12 *449:A2 6.6576e-06
82 *163:12 *231:64 2.52965e-06
83 *163:16 *231:98 0
84 *166:24 *462:A2 2.25089e-06
85 *166:24 *231:14 4.6098e-05
86 *166:24 *231:119 2.27781e-05
87 *166:26 *231:14 3.65322e-06
88 *166:26 *231:27 5.43446e-05
89 *171:12 *449:A2 4.92317e-06
90 *171:12 *231:27 7.02815e-06
91 *171:12 *231:38 8.36495e-06
92 *171:12 *231:49 4.15205e-05
93 *171:12 *231:60 7.9638e-06
94 *174:16 *231:75 7.72537e-06
95 *174:16 *231:94 1.74934e-05
96 *174:16 *231:98 1.66988e-05
97 *185:6 *231:94 0
98 *187:34 *449:A2 7.19036e-06
99 *187:38 *449:A2 3.28137e-06
100 *187:38 *231:75 0
101 *189:22 *452:A2 8.93589e-05
102 *189:22 *231:98 4.5591e-05
103 *195:10 *231:8 2.9975e-06
104 *195:10 *231:14 7.11905e-07
105 *196:14 *454:A2 2.14522e-06
106 *215:10 *231:8 6.19458e-05
107 *215:10 *231:14 1.72405e-05
108 *226:14 *454:A2 5.48932e-05
*RES
1 *433:Z *231:8 13.6429 
2 *231:8 *231:14 14.1786 
3 *231:14 *458:A2 5 
4 *231:14 *231:27 21.7857 
5 *231:27 *460:A2 11.75 
6 *231:27 *231:38 2.96429 
7 *231:38 *456:A2 11.75 
8 *231:38 *231:49 10.4286 
9 *231:49 *464:A2 11.75 
10 *231:49 *231:60 9.07143 
11 *231:60 *231:64 6.75 
12 *231:64 *446:A2 5 
13 *231:64 *231:75 4.28572 
14 *231:75 *452:A2 22 
15 *231:75 *231:94 7.25 
16 *231:94 *231:98 49.3572 
17 *231:98 index[4] 43.0357 
18 *231:60 *449:A2 14.7143 
19 *231:8 *231:119 11.25 
20 *231:119 *462:A2 5.75 
21 *231:119 *454:A2 19.3214 
*END

*D_NET *232 0.00339254
*CONN
*P index[5] O
*I *460:A1 I *D NOR3_X1
*I *464:A1 I *D NOR3_X1
*I *452:A1 I *D NOR3_X1
*I *449:A1 I *D NOR3_X1
*I *446:A1 I *D NOR3_X1
*I *456:A1 I *D NOR3_X1
*I *458:A1 I *D NOR3_X1
*I *462:A1 I *D NOR3_X1
*I *454:A1 I *D NOR3_X1
*I *318:Z O *D BUF_X1
*CAP
1 index[5] 0.00030685
2 *460:A1 9.12336e-06
3 *464:A1 0
4 *452:A1 4.3026e-06
5 *449:A1 3.25479e-05
6 *446:A1 5.92246e-06
7 *456:A1 0
8 *458:A1 0
9 *462:A1 0
10 *454:A1 3.39711e-05
11 *318:Z 2.67968e-05
12 *232:94 6.09076e-05
13 *232:90 9.10952e-05
14 *232:80 9.71788e-05
15 *232:68 0.00030685
16 *232:66 6.44179e-05
17 *232:55 5.34348e-05
18 *232:47 0.00015268
19 *232:32 0.000238339
20 *232:23 0.00013174
21 *232:8 7.58858e-05
22 index[5] *251:5 0.000203859
23 *454:A1 *268:39 1.03334e-06
24 *232:55 *268:29 1.19839e-05
25 *232:66 *268:29 1.67775e-05
26 *232:90 *251:5 0
27 grant[18] index[5] 9.42407e-05
28 grant[25] *452:A1 7.16188e-07
29 *318:A *232:8 1.91498e-06
30 *318:A *232:23 6.38328e-07
31 *446:A3 *452:A1 3.09411e-06
32 *446:A3 *232:90 5.90251e-06
33 *449:A2 *446:A1 1.40196e-06
34 *449:A2 *449:A1 2.39679e-06
35 *449:A3 *449:A1 2.94435e-05
36 *452:A2 *449:A1 1.21072e-05
37 *452:A2 *232:94 6.19272e-06
38 *452:A3 *452:A1 1.21774e-06
39 *452:A3 *232:90 1.44866e-05
40 *454:A2 *232:32 3.3131e-07
41 *455:A3 *232:47 0
42 *456:A2 *232:55 1.19839e-05
43 *456:A3 *460:A1 4.21607e-06
44 *456:A3 *232:47 1.57439e-05
45 *459:A2 *232:32 1.1431e-05
46 *459:A3 *232:32 2.66773e-05
47 *460:A2 *460:A1 9.76549e-06
48 *460:A2 *232:47 7.72792e-06
49 *460:A3 *232:47 2.10705e-05
50 *461:A3 *232:32 0
51 *462:A2 *232:23 2.39679e-06
52 *462:A2 *232:32 4.79358e-06
53 *462:A3 *232:23 1.68643e-06
54 *464:A2 *232:90 1.82068e-05
55 *126:10 *454:A1 0
56 *126:35 *454:A1 1.52775e-05
57 *126:35 *232:32 0
58 *145:12 *454:A1 5.6511e-06
59 *145:12 *232:8 3.09143e-06
60 *145:12 *232:23 5.90251e-06
61 *145:12 *232:32 8.43215e-07
62 *146:8 *232:47 7.95596e-06
63 *148:14 *232:47 7.04654e-05
64 *149:10 *454:A1 3.43414e-06
65 *150:18 *232:90 3.73261e-06
66 *150:33 *232:80 1.68643e-06
67 *160:68 index[5] 6.13123e-06
68 *160:68 *232:80 0
69 *160:74 *232:55 5.37387e-05
70 *162:70 *449:A1 3.98918e-06
71 *162:70 *232:94 5.27516e-05
72 *166:20 *454:A1 4.90889e-05
73 *166:24 *232:23 4.32144e-07
74 *171:12 *232:90 4.20051e-05
75 *174:18 *232:66 9.28375e-05
76 *174:18 *232:80 0.000102626
77 *179:6 index[5] 4.4072e-05
78 *187:38 *449:A1 7.19036e-06
79 *188:26 *449:A1 1.52083e-06
80 *189:22 *449:A1 4.62745e-06
81 *189:22 *232:66 9.22959e-05
82 *189:22 *232:80 0.000106082
83 *196:14 *232:32 3.26648e-06
84 *207:8 *232:66 7.72792e-06
85 *218:14 *232:32 1.76665e-06
86 *218:14 *232:47 9.52613e-06
87 *225:8 *232:80 1.67775e-05
88 *225:8 *232:90 2.39679e-06
89 *228:65 *454:A1 0
90 *228:67 *454:A1 0
91 *229:79 *232:32 0
92 *231:14 *232:32 3.60726e-05
93 *231:14 *232:47 2.75346e-06
94 *231:27 *232:47 5.12741e-05
95 *231:38 *232:55 4.15357e-05
96 *231:49 *232:55 1.72426e-05
97 *231:60 *232:90 0.000116028
98 *231:64 *446:A1 7.72792e-06
99 *231:75 *446:A1 2.75346e-06
100 *231:75 *449:A1 0
101 *231:119 *232:32 6.27833e-05
*RES
1 *318:Z *232:8 8.03572 
2 *232:8 *454:A1 19.4643 
3 *232:8 *232:23 1.75 
4 *232:23 *462:A1 5 
5 *232:23 *232:32 15.6786 
6 *232:32 *458:A1 5 
7 *232:32 *232:47 17.7857 
8 *232:47 *232:55 14.2143 
9 *232:55 *456:A1 5 
10 *232:55 *232:66 11.75 
11 *232:66 *232:68 5 
12 *232:68 index[5] 45.0357 
13 *232:66 *232:80 12.4286 
14 *232:80 *232:90 20.3571 
15 *232:90 *232:94 7.96429 
16 *232:94 *446:A1 10.75 
17 *232:94 *449:A1 14.9643 
18 *232:90 *452:A1 5.75 
19 *232:80 *464:A1 5 
20 *232:47 *460:A1 6.25 
*END

*D_NET *233 0.00406129
*CONN
*P req[0] I
*I *338:A2 I *D NOR4_X1
*CAP
1 req[0] 0.000703378
2 *338:A2 5.25995e-06
3 *233:21 0.00106119
4 *233:15 0.0017593
5 *338:A2 *277:49 1.76147e-05
6 *338:A2 *288:21 1.89985e-05
7 *233:15 *236:11 2.05033e-06
8 *233:15 *236:13 0.000471415
9 *233:15 *289:15 8.04661e-07
10 *233:21 *262:13 9.68603e-07
11 *233:21 *286:31 1.76942e-05
12 index[4] *233:15 2.60945e-06
*RES
1 req[0] *233:15 45.7771 
2 *233:15 *233:21 47.73 
3 *233:21 *338:A2 16.0357 
*END

*D_NET *234 0.00375886
*CONN
*P req[10] I
*I *409:B1 I *D OAI21_X1
*I *367:A I *D INV_X1
*I *331:A2 I *D NOR4_X1
*CAP
1 req[10] 0.00105572
2 *409:B1 6.86546e-05
3 *367:A 0
4 *331:A2 6.6876e-05
5 *234:21 9.68877e-05
6 *234:19 0.000251365
7 *234:15 0.00120842
8 *331:A2 *331:A3 2.39679e-06
9 *331:A2 *331:A4 2.43639e-05
10 *331:A2 *263:31 3.32169e-05
11 *331:A2 *296:9 5.57182e-06
12 *331:A2 *296:13 5.16499e-06
13 *409:B1 *235:21 9.09239e-06
14 *409:B1 *250:27 4.29179e-05
15 *234:15 *238:15 4.3761e-06
16 *234:15 *262:13 0
17 *234:19 *296:9 9.15642e-05
18 *234:21 *296:9 2.18035e-05
19 grant[3] *234:15 5.71321e-06
20 *339:A3 *234:19 5.39422e-05
21 *375:A *409:B1 7.19036e-06
22 *375:B1 *409:B1 3.46864e-06
23 *376:B2 *409:B1 4.29713e-06
24 *409:A *409:B1 2.75346e-06
25 *411:C1 *409:B1 4.43172e-05
26 *169:14 *331:A2 1.01993e-05
27 *179:16 *234:15 6.31548e-06
28 *204:14 *331:A2 1.72426e-05
29 *204:14 *234:19 0.000513998
30 *204:14 *234:21 0.000101043
31 *228:67 *331:A2 0
*RES
1 req[10] *234:15 48.1514 
2 *234:15 *234:19 32.9643 
3 *234:19 *234:21 5.67857 
4 *234:21 *331:A2 19.3929 
5 *234:21 *367:A 10 
6 *234:19 *409:B1 20.25 
*END

*D_NET *235 0.00401015
*CONN
*P req[11] I
*I *409:B2 I *D OAI21_X1
*I *331:A1 I *D NOR4_X1
*I *440:A I *D AOI221_X1
*I *368:A I *D AOI21_X1
*CAP
1 req[11] 3.59094e-05
2 *409:B2 0
3 *331:A1 2.27526e-05
4 *440:A 0
5 *368:A 0
6 *235:38 5.83589e-05
7 *235:27 7.05255e-05
8 *235:21 0.000227684
9 *235:13 0.00066148
10 *235:11 0.000504625
11 *331:A1 *263:31 8.28248e-06
12 *331:A1 *296:13 4.79358e-06
13 *331:A1 *296:15 2.39679e-06
14 *235:11 *244:9 5.48953e-05
15 *235:11 *246:5 1.12342e-05
16 *235:11 *254:5 1.1796e-05
17 *235:11 *255:9 5.54348e-05
18 *235:13 *246:5 0.000321802
19 *235:13 *254:13 0.000236932
20 *235:13 *258:13 0.00098568
21 *235:21 *239:37 2.94455e-05
22 *235:21 *258:27 2.89018e-05
23 *235:21 *282:17 9.12521e-05
24 *368:B1 *235:38 2.95343e-05
25 *374:A *331:A1 4.11048e-05
26 *375:A *235:38 4.35246e-05
27 *376:B2 *235:21 2.35379e-05
28 *409:B1 *235:21 9.09239e-06
29 *411:C2 *235:21 0.000128655
30 *415:A1 *235:21 1.56073e-06
31 *425:B2 *235:21 2.96955e-05
32 *440:C2 *331:A1 7.19036e-06
33 *440:C2 *235:38 2.39679e-06
34 *32:10 *235:27 1.52083e-06
35 *33:12 *331:A1 1.39047e-05
36 *33:25 *235:21 1.98533e-05
37 *34:19 *235:21 0.000118035
38 *67:8 *331:A1 4.79358e-06
39 *67:8 *235:38 2.39679e-06
40 *219:8 *235:21 8.6029e-05
41 *219:8 *235:27 2.31472e-05
*RES
1 req[11] *235:11 16 
2 *235:11 *235:13 91.75 
3 *235:13 *235:21 39.6429 
4 *235:21 *235:27 13.6429 
5 *235:27 *368:A 5 
6 *235:27 *235:38 5.92857 
7 *235:38 *440:A 5 
8 *235:38 *331:A1 18.7857 
9 *235:21 *409:B2 5 
*END

*D_NET *236 0.00563234
*CONN
*P req[12] I
*I *330:A4 I *D NOR4_X1
*I *441:B1 I *D OAI21_X1
*I *366:A I *D INV_X1
*CAP
1 req[12] 1.31753e-05
2 *330:A4 9.54855e-06
3 *441:B1 5.79e-06
4 *366:A 5.25766e-05
5 *236:25 7.1552e-05
6 *236:23 4.26991e-05
7 *236:17 0.0011573
8 *236:15 0.00113733
9 *236:13 0.0011074
10 *236:11 0.00112057
11 *330:A4 *330:A3 7.19036e-06
12 *366:A *376:A 0
13 *366:A *242:23 8.26038e-06
14 *366:A *263:45 6.82202e-07
15 *236:11 *289:15 4.80074e-06
16 *236:25 *237:31 0
17 *376:B1 *366:A 7.19473e-06
18 *376:B2 *330:A4 3.53857e-06
19 *376:B2 *366:A 7.82554e-05
20 *376:B2 *236:25 1.9872e-05
21 *441:A *330:A4 7.19036e-06
22 *441:A *441:B1 7.19036e-06
23 *441:B2 *441:B1 1.68643e-06
24 *442:B2 *441:B1 2.39679e-06
25 *199:16 *236:17 0.000292678
26 *233:15 *236:11 2.05033e-06
27 *233:15 *236:13 0.000471415
*RES
1 req[12] *236:11 11.3571 
2 *236:11 *236:13 47.04 
3 *236:13 *236:15 3 
4 *236:15 *236:17 53.55 
5 *236:17 *236:23 8.42 
6 *236:23 *236:25 1.39286 
7 *236:25 *366:A 16.4286 
8 *236:25 *441:B1 10.75 
9 *236:23 *330:A4 11.2143 
*END

*D_NET *237 0.0065938
*CONN
*P req[13] I
*I *330:A3 I *D NOR4_X1
*I *436:A I *D INV_X1
*I *376:A I *D AOI21_X1
*CAP
1 req[13] 6.9783e-05
2 *330:A3 2.52939e-05
3 *436:A 1.18123e-05
4 *376:A 5.17325e-05
5 *237:31 9.13309e-05
6 *237:29 0.000727662
7 *237:27 0.000851646
8 *237:23 0.000382173
9 *237:13 0.000458575
10 *237:11 0.00032325
11 *330:A3 *330:A2 8.44023e-06
12 *376:A *263:45 3.54431e-05
13 *237:11 *271:11 5.81799e-05
14 *237:11 *280:11 3.05899e-05
15 *237:13 *287:13 0.000104971
16 *237:13 *289:33 5.03566e-05
17 *237:23 *287:13 0.000215323
18 *237:27 *287:21 0.000358372
19 *237:29 *238:21 0
20 *237:29 *238:23 0
21 *237:29 *238:25 0
22 *237:29 *260:23 0.000706314
23 grant[40] *237:11 2.60945e-06
24 grant[43] *237:11 2.05033e-06
25 grant[48] *237:13 0.000514171
26 grant[4] *237:13 0.000254104
27 *330:A4 *330:A3 7.19036e-06
28 *366:A *376:A 0
29 *376:B1 *376:A 2.39679e-06
30 *376:B2 *330:A3 1.64866e-05
31 *376:B2 *436:A 0
32 *376:B2 *237:31 0
33 *422:A1 *237:29 3.25234e-05
34 *425:A *237:29 2.66211e-07
35 *441:A *330:A3 1.44283e-05
36 *441:B2 *330:A3 3.19164e-07
37 *441:B2 *376:A 2.65726e-05
38 *441:B2 *436:A 2.04038e-05
39 *467:A3 *237:23 5.18445e-05
40 *470:A2 *237:29 5.65317e-05
41 *470:A4 *237:29 8.19658e-05
42 *498:A3 *237:23 0
43 *21:35 *237:29 3.27472e-05
44 *21:46 *237:29 1.03572e-05
45 *110:18 *237:29 0
46 *112:12 *237:29 8.59171e-06
47 *151:10 *237:23 1.07633e-05
48 *151:12 *237:23 4.9678e-06
49 *151:101 *237:23 5.23703e-05
50 *152:26 *237:23 5.33077e-05
51 *153:19 *237:29 0.000193502
52 *164:8 *237:29 0
53 *165:8 *237:27 8.58671e-06
54 *182:10 *237:29 0.000137716
55 *184:16 *237:23 1.04876e-05
56 *186:16 *237:27 0.00030591
57 *187:30 *237:23 2.89018e-05
58 *201:12 *376:A 1.9871e-06
59 *201:12 *237:29 2.36849e-05
60 *201:12 *237:31 2.22121e-06
61 *203:20 *237:13 1.40947e-05
62 *203:20 *237:23 2.19138e-05
63 *213:10 *237:23 1.26217e-05
64 *217:12 *237:29 8.56923e-06
65 *226:8 *237:23 5.38636e-06
66 *236:25 *237:31 0
*RES
1 req[13] *237:11 18.25 
2 *237:11 *237:13 51.1429 
3 *237:13 *237:23 42 
4 *237:23 *237:27 38.75 
5 *237:27 *237:29 92.5358 
6 *237:29 *237:31 2.28572 
7 *237:31 *376:A 16.5357 
8 *237:31 *436:A 11.75 
9 *237:29 *330:A3 14.25 
*END

*D_NET *238 0.00387893
*CONN
*P req[14] I
*I *408:A2 I *D NOR2_X1
*I *435:A I *D INV_X1
*I *330:A2 I *D NOR4_X1
*I *377:B1 I *D OAI21_X1
*CAP
1 req[14] 0.000355734
2 *408:A2 0
3 *435:A 0
4 *330:A2 2.45565e-05
5 *377:B1 6.3238e-05
6 *238:25 9.45343e-05
7 *238:23 1.9674e-05
8 *238:21 3.63077e-05
9 *238:17 0.000567242
10 *238:15 0.000899602
11 *238:15 *242:11 1.20712e-06
12 *238:15 *258:13 5.52394e-05
13 *238:15 *295:15 1.66988e-05
14 *238:17 *330:A1 4.68638e-06
15 *238:17 *239:37 0.000200015
16 *238:17 *247:15 8.7495e-06
17 *238:17 *247:17 0.000177918
18 *238:17 *250:19 4.76841e-05
19 *238:17 *250:27 8.21788e-05
20 *238:17 *294:13 0.000607087
21 *238:17 *294:15 6.15513e-05
22 *238:17 *294:27 5.72712e-05
23 *238:17 *295:15 7.19036e-06
24 grant[1] *238:17 0.000163933
25 grant[3] *238:15 3.23723e-07
26 *330:A3 *330:A2 8.44023e-06
27 *376:B2 *330:A2 2.38892e-05
28 *376:B2 *377:B1 8.59171e-06
29 *376:B2 *238:17 0
30 *377:A *377:B1 2.75346e-06
31 *377:B2 *377:B1 7.02161e-06
32 *411:A *238:17 0.000149956
33 *442:B2 *377:B1 1.16156e-05
34 *77:10 *377:B1 0
35 *137:10 *377:B1 8.727e-07
36 *137:10 *238:21 0
37 *137:10 *238:23 0
38 *137:10 *238:25 0
39 *173:28 *238:17 2.90685e-06
40 *196:16 *238:15 0.00010588
41 *214:10 *238:15 0
42 *234:15 *238:15 4.3761e-06
43 *237:29 *238:21 0
44 *237:29 *238:23 0
45 *237:29 *238:25 0
*RES
1 req[14] *238:15 47.5714 
2 *238:15 *238:17 101.25 
3 *238:17 *238:21 7.28572 
4 *238:21 *238:23 1.60714 
5 *238:23 *238:25 0.928572 
6 *238:25 *377:B1 17.9643 
7 *238:25 *330:A2 13.1071 
8 *238:23 *435:A 10 
9 *238:21 *408:A2 10 
*END

*D_NET *239 0.00630323
*CONN
*P req[15] I
*I *408:A1 I *D NOR2_X1
*I *330:A1 I *D NOR4_X1
*I *365:A I *D INV_X1
*I *442:A I *D AOI21_X1
*CAP
1 req[15] 0.000294273
2 *408:A1 0
3 *330:A1 3.44894e-05
4 *365:A 0
5 *442:A 5.80126e-06
6 *239:43 4.94152e-05
7 *239:39 8.39076e-05
8 *239:37 0.00012283
9 *239:27 0.000339787
10 *239:23 0.000498325
11 *239:19 0.000529502
12 *239:15 0.000533338
13 *239:11 0.000361491
14 *239:5 0.000376365
15 *239:5 valid 0.000238488
16 *239:5 *269:7 0.000203449
17 *239:15 *275:27 2.47678e-05
18 *239:15 *277:23 1.55485e-05
19 *239:15 *289:33 2.94435e-05
20 *239:19 *265:25 5.46453e-05
21 *239:27 *246:13 0.000238647
22 *239:27 *247:17 0.000466378
23 *239:27 *250:5 1.20522e-05
24 *239:27 *250:19 9.29862e-05
25 *239:37 *247:17 0.000209577
26 *239:43 *247:17 8.93659e-06
27 grant[62] *239:5 0
28 *376:B2 *330:A1 1.25215e-05
29 *377:A *442:A 2.70833e-06
30 *377:A *239:43 1.97916e-06
31 *442:B1 *330:A1 0
32 *442:B1 *442:A 3.88456e-06
33 *442:B1 *239:43 1.34e-05
34 *442:B2 *239:43 0
35 *452:A3 *239:15 1.94663e-05
36 *452:A3 *239:19 3.98013e-05
37 *498:A3 *239:15 9.47025e-06
38 *503:A3 *239:19 2.89018e-05
39 *516:A1 *239:15 5.3396e-05
40 *33:25 *239:37 4.92863e-06
41 *140:10 *239:15 1.85226e-05
42 *140:19 *239:15 1.80625e-06
43 *146:12 *239:19 0.000127444
44 *148:20 *239:19 5.51337e-05
45 *160:95 *239:23 0.000116702
46 *163:12 *239:11 4.64167e-06
47 *163:12 *239:15 5.98442e-05
48 *163:16 *239:11 3.44452e-05
49 *164:18 *239:23 9.77674e-06
50 *171:12 *239:19 2.28136e-05
51 *171:16 *239:19 2.14396e-06
52 *171:16 *239:23 0.000118174
53 *184:18 *239:19 0
54 *186:26 *239:15 0.000299538
55 *186:26 *239:19 0.000172131
56 *193:14 *239:23 4.12796e-06
57 *226:22 *239:23 6.93881e-06
58 *230:118 *239:19 0
59 *230:118 *239:23 0
60 *235:21 *239:37 2.94455e-05
61 *238:17 *330:A1 4.68638e-06
62 *238:17 *239:37 0.000200015
*RES
1 req[15] *239:5 49.5357 
2 *239:5 *239:11 14.9821 
3 *239:11 *239:15 36.625 
4 *239:15 *239:19 36.625 
5 *239:19 *239:23 37.4822 
6 *239:23 *239:27 48.75 
7 *239:27 *239:37 28.7143 
8 *239:37 *239:39 0.928572 
9 *239:39 *239:43 6.35715 
10 *239:43 *442:A 5.92857 
11 *239:43 *365:A 5 
12 *239:39 *330:A1 10.4643 
13 *239:37 *408:A1 5 
*END

*D_NET *240 0.00753913
*CONN
*P req[16] I
*I *327:A2 I *D NOR3_X1
*CAP
1 req[16] 0.000748257
2 *327:A2 0.000159424
3 *240:9 0.000648791
4 *240:7 0.000489367
5 *240:5 0.000748257
6 *327:A2 *327:A1 2.75346e-06
7 *327:A2 *242:25 0
8 *327:A2 *247:25 0
9 *327:A2 *248:21 0.000159398
10 *327:A2 *273:9 5.2303e-05
11 *327:A2 *278:31 0.000100694
12 *327:A2 *279:11 0.000162495
13 *327:A2 *279:13 4.33833e-05
14 *240:5 *243:5 0.000632484
15 *240:5 *276:13 0.000593055
16 *240:5 *289:15 9.35678e-06
17 *240:9 *243:9 0
18 *240:9 *248:9 0.00011295
19 *240:9 *278:31 3.29166e-05
20 *240:9 *278:33 0.001346
21 *240:9 *279:13 0.00147835
22 *240:9 *281:13 0
23 index[4] *240:5 0
24 *328:A2 *327:A2 9.64883e-06
25 *349:B1 *240:9 8.93174e-06
26 *406:C2 *327:A2 3.19164e-07
*RES
1 req[16] *240:5 131.036 
2 *240:5 *240:7 5 
3 *240:7 *240:9 106.393 
4 *240:9 *327:A2 37.6786 
*END

*D_NET *241 0.00445792
*CONN
*P req[17] I
*I *327:A1 I *D NOR3_X1
*I *358:A I *D INV_X1
*CAP
1 req[17] 0.00029752
2 *327:A1 5.92988e-05
3 *358:A 3.34689e-05
4 *241:17 0.000115166
5 *241:13 0.000296836
6 *241:11 0.000291348
7 *241:5 0.00031443
8 *327:A1 *323:A2 4.23042e-06
9 *327:A1 *325:A3 3.49085e-06
10 *327:A1 *249:11 1.90444e-05
11 *327:A1 *263:45 7.66675e-07
12 *327:A1 *279:11 3.11308e-06
13 *358:A *326:A1 4.9678e-06
14 *358:A *357:A 5.52692e-06
15 *358:A *242:25 6.59736e-06
16 *241:5 *242:13 0.000755949
17 *241:5 *253:5 3.82719e-06
18 *241:5 *263:13 0.000746362
19 *241:13 *253:9 0.000616627
20 *241:13 *263:51 2.42461e-05
21 *241:13 *273:5 4.9829e-06
22 *241:17 *249:11 8.70497e-06
23 *241:17 *263:45 1.09659e-05
24 grant[61] *241:5 3.23723e-07
25 index[3] *241:5 2.60945e-06
26 *327:A2 *327:A1 2.75346e-06
27 *406:C2 *327:A1 9.55059e-06
28 *27:10 *327:A1 7.72792e-06
29 *28:10 *327:A1 6.92212e-05
30 *215:10 *241:11 4.16485e-05
31 *220:16 *358:A 6.84742e-06
32 *220:16 *241:13 0.000684837
33 *220:22 *241:11 4.92863e-06
*RES
1 req[17] *241:5 70.0357 
2 *241:5 *241:11 12.2857 
3 *241:11 *241:13 62.75 
4 *241:13 *241:17 7.96429 
5 *241:17 *358:A 14.25 
6 *241:17 *327:A1 19.1429 
*END

*D_NET *242 0.00544133
*CONN
*P req[18] I
*I *359:B1 I *D OAI21_X1
*I *326:A2 I *D OR2_X1
*CAP
1 req[18] 0.000221165
2 *359:B1 1.99091e-05
3 *326:A2 4.99591e-06
4 *242:25 6.0819e-05
5 *242:23 0.000326911
6 *242:13 0.000695775
7 *242:11 0.000625943
8 *326:A2 *326:A1 7.72792e-06
9 *359:B1 *325:A3 4.32144e-07
10 *359:B1 *325:A4 8.43215e-07
11 *359:B1 *243:17 6.86795e-05
12 *242:11 *246:5 3.73676e-06
13 *242:11 *258:11 0.000105834
14 *242:11 *258:13 7.19036e-06
15 *242:11 *270:11 0.000143237
16 *242:13 *331:A4 8.52419e-06
17 *242:13 *253:5 0.000554216
18 *242:13 *253:9 4.62982e-05
19 *242:13 *263:13 2.71691e-06
20 *242:13 *263:31 0.00019887
21 *242:23 *331:A3 2.24822e-06
22 *242:23 *331:A4 1.32348e-05
23 *242:23 *263:45 0.000107359
24 *242:25 *326:A1 4.97191e-06
25 grant[47] *242:11 4.24402e-05
26 index[3] *242:11 4.24381e-05
27 *327:A2 *242:25 0
28 *358:A *242:25 6.59736e-06
29 *359:A *359:B1 6.78899e-05
30 *359:B2 *326:A2 2.16072e-07
31 *359:B2 *359:B1 8.43215e-07
32 *359:B2 *242:23 0
33 *366:A *242:23 8.26038e-06
34 *376:B1 *242:23 2.43548e-06
35 *28:10 *242:25 1.45251e-05
36 *179:18 *242:11 0.000696942
37 *220:16 *242:13 0.000246473
38 *220:16 *242:23 0.000323474
39 *220:16 *242:25 0
40 *238:15 *242:11 1.20712e-06
41 *241:5 *242:13 0.000755949
*RES
1 req[18] *242:11 48.6072 
2 *242:11 *242:13 90.25 
3 *242:13 *242:23 46.5 
4 *242:23 *242:25 4.75 
5 *242:25 *326:A2 5.75 
6 *242:25 *359:B1 19.3929 
*END

*D_NET *243 0.00687747
*CONN
*P req[19] I
*I *326:A1 I *D OR2_X1
*I *357:A I *D INV_X1
*CAP
1 req[19] 0.000770863
2 *326:A1 8.46531e-06
3 *357:A 2.19071e-05
4 *243:17 5.48397e-05
5 *243:13 0.000492336
6 *243:11 0.000474413
7 *243:9 0.000369803
8 *243:7 0.000363258
9 *243:5 0.000770863
10 *357:A *249:11 5.48953e-05
11 *243:5 *245:5 0.000653654
12 *243:9 *394:A 1.37959e-05
13 *243:9 *245:9 8.20779e-05
14 *243:9 *279:13 0
15 *243:9 *281:13 0.000353772
16 *243:9 *283:32 8.13967e-05
17 *243:13 *323:A2 6.29568e-05
18 *243:13 *325:A2 7.9845e-05
19 *243:13 *356:A 3.76506e-05
20 *243:13 *245:9 2.56582e-05
21 *243:13 *245:13 0.000105603
22 *243:13 *279:13 0
23 *243:17 *249:11 0.000100916
24 *326:A2 *326:A1 7.72792e-06
25 *349:B1 *243:9 0
26 *350:A *243:9 6.92933e-05
27 *351:C1 *243:9 3.4802e-05
28 *351:C2 *243:9 0.000284833
29 *358:A *326:A1 4.9678e-06
30 *358:A *357:A 5.52692e-06
31 *359:A *357:A 1.55645e-05
32 *359:A *243:17 7.41091e-06
33 *359:B1 *243:17 6.86795e-05
34 *360:B1 *243:13 7.95929e-05
35 *360:C2 *243:13 1.86793e-05
36 *360:C2 *243:17 3.9703e-07
37 *361:A *243:13 2.54476e-05
38 *362:B1 *243:13 0.000107144
39 *403:A *243:13 0
40 *420:A *243:13 2.66814e-06
41 *427:A *243:13 0.000207421
42 *427:B2 *243:13 6.84316e-05
43 *3:19 *243:9 4.21054e-05
44 *9:16 *243:9 0
45 *9:16 *243:13 0
46 *25:8 *243:13 4.09574e-05
47 *61:10 *243:13 6.58492e-05
48 *79:10 *243:13 2.26304e-06
49 *79:12 *243:13 6.08864e-06
50 *124:12 *243:13 8.14241e-05
51 *220:12 *357:A 0
52 *220:16 *357:A 1.37673e-05
53 *240:5 *243:5 0.000632484
54 *240:9 *243:9 0
55 *242:25 *326:A1 4.97191e-06
*RES
1 req[19] *243:5 135.536 
2 *243:5 *243:7 5 
3 *243:7 *243:9 58.9465 
4 *243:9 *243:11 0.75 
5 *243:11 *243:13 71.5 
6 *243:13 *243:17 6.08929 
7 *243:17 *357:A 14.2143 
8 *243:17 *326:A1 11.25 
*END

*D_NET *244 0.00423645
*CONN
*P req[1] I
*I *338:A1 I *D NOR4_X1
*I *438:B2 I *D AOI21_X1
*I *371:A I *D INV_X1
*CAP
1 req[1] 2.48462e-05
2 *338:A1 6.96825e-05
3 *438:B2 0
4 *371:A 4.75771e-05
5 *244:26 9.3575e-05
6 *244:13 0.000472343
7 *244:11 0.000400874
8 *244:9 0.000332926
9 *244:7 0.000357772
10 *338:A1 *335:A 1.68643e-06
11 *338:A1 *336:A 0
12 *371:A *335:A 3.89376e-05
13 *371:A *274:13 8.99555e-06
14 *244:9 *255:9 0.00034425
15 *244:9 *262:11 1.77851e-05
16 *244:9 *274:11 2.31472e-05
17 *244:9 *286:15 5.41015e-05
18 *244:13 *270:13 1.59582e-06
19 *244:13 *274:13 0.000176656
20 *244:13 *282:5 0.000734448
21 *244:13 *286:17 3.19164e-07
22 *244:13 *290:11 2.16072e-07
23 *244:26 *335:A 0
24 *244:26 *266:17 9.01846e-07
25 *244:26 *286:17 2.75346e-06
26 grant[25] *244:7 0
27 grant[28] *244:7 2.05033e-06
28 grant[2] *244:7 9.5451e-06
29 grant[2] *244:9 2.93686e-05
30 *337:A2 *371:A 8.26038e-06
31 *338:A3 *338:A1 1.21774e-06
32 *372:B2 *338:A1 2.09245e-05
33 *373:C2 *338:A1 2.7069e-05
34 *438:B1 *338:A1 7.19036e-06
35 *439:B1 *338:A1 2.46838e-05
36 *37:10 *338:A1 1.33399e-06
37 *37:10 *371:A 1.0682e-05
38 *37:10 *244:26 7.77959e-06
39 *39:8 *338:A1 9.41943e-06
40 *39:8 *371:A 3.23723e-07
41 *39:8 *244:26 1.09428e-06
42 *170:10 *244:9 9.72585e-06
43 *179:16 *244:9 3.11707e-05
44 *179:18 *244:9 7.93934e-05
45 *193:20 *244:9 0.000694929
46 *235:11 *244:9 5.48953e-05
*RES
1 req[1] *244:7 7.53572 
2 *244:7 *244:9 62 
3 *244:9 *244:11 5 
4 *244:11 *244:13 68.75 
5 *244:13 *371:A 11.6786 
6 *244:13 *244:26 3.53572 
7 *244:26 *438:B2 5 
8 *244:26 *338:A1 23.4643 
*END

*D_NET *245 0.00680652
*CONN
*P req[20] I
*I *325:A4 I *D NOR4_X1
*CAP
1 req[20] 0.000787595
2 *325:A4 1.6762e-05
3 *245:13 0.000313945
4 *245:11 0.000308092
5 *245:9 0.000383045
6 *245:7 0.000372137
7 *245:5 0.000787595
8 *325:A4 *325:A3 2.75346e-06
9 *245:5 *248:5 0.000625924
10 *245:5 *252:5 0
11 *245:9 *252:9 6.31065e-05
12 *245:9 *281:13 5.39412e-06
13 *245:9 *282:25 0.000148867
14 *245:9 *283:32 8.93174e-06
15 *245:13 *282:25 0.000896855
16 *300:A1 *245:9 4.12796e-06
17 *304:A1 *245:9 1.16067e-05
18 *350:A *245:9 0.0002464
19 *351:C1 *245:9 0.000116952
20 *351:C2 *245:9 9.24443e-05
21 *359:B1 *325:A4 8.43215e-07
22 *359:B2 *325:A4 2.23415e-06
23 *360:B1 *245:13 1.90574e-06
24 *360:C2 *325:A4 0
25 *360:C2 *245:13 0.000108205
26 *362:B1 *245:13 0.000136196
27 *427:A *245:9 8.08846e-05
28 *427:A *245:13 2.61401e-05
29 *427:B2 *245:13 1.46266e-05
30 *2:27 *245:9 0.000143483
31 *3:19 *245:9 0.000108745
32 *61:10 *245:13 8.1183e-06
33 *220:12 *245:13 0.000115609
34 *243:5 *245:5 0.000653654
35 *243:9 *245:9 8.20779e-05
36 *243:13 *245:9 2.56582e-05
37 *243:13 *245:13 0.000105603
*RES
1 req[20] *245:5 137.036 
2 *245:5 *245:7 5 
3 *245:7 *245:9 68.1072 
4 *245:9 *245:11 1.25 
5 *245:11 *245:13 63.3572 
6 *245:13 *325:A4 11.75 
*END

*D_NET *246 0.00418215
*CONN
*P req[21] I
*I *360:B2 I *D AOI221_X1
*I *325:A3 I *D NOR4_X1
*CAP
1 req[21] 0.000485883
2 *360:B2 1.74683e-05
3 *325:A3 4.21366e-05
4 *246:21 0.000185356
5 *246:13 0.000425439
6 *246:11 0.000438669
7 *246:5 0.000624863
8 *325:A3 *323:A2 5.41015e-05
9 *325:A3 *325:A2 1.30565e-05
10 *360:B2 *325:A1 2.76156e-05
11 *360:B2 *360:A 2.14281e-05
12 *246:5 *254:5 0.000108922
13 *246:5 *254:13 5.25811e-05
14 *246:5 *258:13 2.51631e-06
15 *246:11 *335:A 4.46014e-06
16 *246:11 *277:49 0
17 *246:11 *277:55 1.54255e-05
18 *246:11 *286:31 1.2631e-05
19 *246:13 *247:17 7.68471e-06
20 *246:13 *247:25 1.12544e-06
21 *246:13 *250:19 1.74934e-05
22 *246:13 *250:37 0.000266965
23 *246:13 *270:13 0
24 *246:13 *277:49 2.26437e-05
25 *246:13 *282:17 2.74308e-05
26 *246:13 *290:23 1.34016e-05
27 *246:21 *323:A2 7.53491e-05
28 *246:21 *406:A 1.68643e-06
29 *246:21 *247:25 7.35889e-05
30 *246:21 *248:21 3.38384e-05
31 *246:21 *270:13 0
32 *325:A4 *325:A3 2.75346e-06
33 *327:A1 *325:A3 3.49085e-06
34 *337:A2 *246:11 8.56923e-06
35 *359:B1 *325:A3 4.32144e-07
36 *360:C1 *246:21 2.30003e-05
37 *372:A *246:11 0.000101066
38 *373:C2 *246:11 1.42383e-06
39 *406:C2 *325:A3 1.20751e-06
40 *407:B2 *246:21 5.56936e-06
41 *411:C1 *246:13 6.42049e-05
42 *411:C2 *246:13 1.67775e-05
43 *27:10 *325:A3 1.09242e-05
44 *27:10 *246:21 5.57182e-06
45 *27:19 *246:21 3.98918e-06
46 *28:10 *325:A3 0
47 *110:18 *246:13 0.00015908
48 *164:12 *246:13 2.87704e-06
49 *215:10 *246:11 0.000122035
50 *235:11 *246:5 1.12342e-05
51 *235:13 *246:5 0.000321802
52 *239:27 *246:13 0.000238647
53 *242:11 *246:5 3.73676e-06
*RES
1 req[21] *246:5 71.5357 
2 *246:5 *246:11 29.25 
3 *246:11 *246:13 51.3929 
4 *246:13 *246:21 22.5357 
5 *246:21 *325:A3 15.7143 
6 *246:21 *360:B2 12.75 
*END

*D_NET *247 0.00555442
*CONN
*P req[22] I
*I *406:B I *D AOI211_X1
*I *356:A I *D INV_X1
*I *325:A2 I *D NOR4_X1
*CAP
1 req[22] 0.000182193
2 *406:B 0
3 *356:A 2.32585e-05
4 *325:A2 3.23995e-05
5 *247:29 8.31064e-05
6 *247:25 0.000130559
7 *247:17 0.00049436
8 *247:15 0.000464401
9 *247:9 0.00078653
10 *247:7 0.000895572
11 *325:A2 *323:A2 2.62886e-05
12 *325:A2 *325:A1 3.93465e-06
13 *356:A *323:A2 1.48912e-05
14 *247:9 *268:15 0
15 *247:15 *250:5 0.000142553
16 *247:17 *250:5 3.65322e-06
17 *247:17 *250:37 0.000267497
18 *247:17 *294:27 5.72712e-05
19 *247:25 *406:A 7.19036e-06
20 *247:25 *248:29 2.25089e-06
21 *247:29 *360:A 1.28942e-05
22 *247:29 *406:A 2.39679e-06
23 *247:29 *248:29 5.52692e-06
24 grant[1] *247:15 0.000100635
25 grant[22] *247:7 6.9979e-05
26 grant[25] *247:7 1.3917e-06
27 *325:A3 *325:A2 1.30565e-05
28 *327:A2 *247:25 0
29 *328:A2 *247:25 0
30 *360:C1 *356:A 1.19839e-05
31 *360:C1 *247:29 1.48066e-05
32 *411:C2 *247:17 1.73151e-05
33 *27:10 *325:A2 2.39679e-06
34 *168:26 *247:9 0
35 *183:20 *247:7 0.00038876
36 *206:12 *247:9 0
37 *214:8 *247:7 0.000223916
38 *238:17 *247:15 8.7495e-06
39 *238:17 *247:17 0.000177918
40 *239:27 *247:17 0.000466378
41 *239:37 *247:17 0.000209577
42 *239:43 *247:17 8.93659e-06
43 *243:13 *325:A2 7.9845e-05
44 *243:13 *356:A 3.76506e-05
45 *246:13 *247:17 7.68471e-06
46 *246:13 *247:25 1.12544e-06
47 *246:21 *247:25 7.35889e-05
*RES
1 req[22] *247:7 41.5357 
2 *247:7 *247:9 63.3572 
3 *247:9 *247:15 19.1786 
4 *247:15 *247:17 72.75 
5 *247:17 *247:25 13.0357 
6 *247:25 *247:29 8.75 
7 *247:29 *325:A2 15.5714 
8 *247:29 *356:A 13.5357 
9 *247:25 *406:B 5 
*END

*D_NET *248 0.00647265
*CONN
*P req[23] I
*I *406:A I *D AOI211_X1
*I *360:A I *D AOI221_X1
*I *325:A1 I *D NOR4_X1
*CAP
1 req[23] 0.000734712
2 *406:A 6.65169e-06
3 *360:A 3.38614e-05
4 *325:A1 3.58093e-05
5 *248:29 9.60508e-05
6 *248:21 0.000166657
7 *248:9 0.000820272
8 *248:7 0.000686647
9 *248:5 0.000734712
10 *248:5 *252:5 3.44743e-05
11 *248:5 *256:5 0.000558477
12 *248:9 *305:A1 2.08824e-05
13 *248:9 *305:A2 7.54346e-07
14 *248:9 *306:A2 0
15 *248:9 *273:9 0.000134128
16 *248:9 *276:17 0
17 *248:9 *278:31 4.7875e-06
18 *248:9 *278:33 0.000507635
19 *248:9 *290:29 9.69862e-05
20 *248:21 *270:13 0
21 *248:21 *273:9 0.000407541
22 *248:21 *278:31 0.000219849
23 *248:21 *279:11 7.94852e-06
24 *248:29 *279:11 7.67471e-06
25 *325:A2 *325:A1 3.93465e-06
26 *327:A2 *248:21 0.000159398
27 *360:B2 *325:A1 2.76156e-05
28 *360:B2 *360:A 2.14281e-05
29 *360:C1 *360:A 6.48216e-07
30 *360:C1 *406:A 2.39679e-06
31 *360:C2 *360:A 2.39679e-06
32 *406:C2 *248:29 7.19036e-06
33 *9:10 *248:9 9.51823e-06
34 *27:10 *325:A1 2.83315e-05
35 *27:10 *248:29 1.75354e-05
36 *27:19 *248:21 1.2203e-05
37 *27:19 *248:29 2.94435e-05
38 *27:30 *248:21 2.94455e-05
39 *240:9 *248:9 0.00011295
40 *245:5 *248:5 0.000625924
41 *246:21 *406:A 1.68643e-06
42 *246:21 *248:21 3.38384e-05
43 *247:25 *406:A 7.19036e-06
44 *247:25 *248:29 2.25089e-06
45 *247:29 *360:A 1.28942e-05
46 *247:29 *406:A 2.39679e-06
47 *247:29 *248:29 5.52692e-06
*RES
1 req[23] *248:5 129.536 
2 *248:5 *248:7 5 
3 *248:7 *248:9 102.714 
4 *248:9 *248:21 38.75 
5 *248:21 *248:29 9.28572 
6 *248:29 *325:A1 10.3571 
7 *248:29 *360:A 9.92857 
8 *248:21 *406:A 10.75 
*END

*D_NET *249 0.00393503
*CONN
*P req[24] I
*I *323:A2 I *D NOR3_X1
*CAP
1 req[24] 0.000904128
2 *323:A2 0.000151586
3 *249:11 0.000343596
4 *249:5 0.00109614
5 *323:A2 *355:B2 2.75346e-06
6 *323:A2 *250:41 2.07819e-05
7 *249:5 *272:5 0
8 *249:5 *279:5 0.000627419
9 *249:11 *263:45 0
10 grant[44] *249:5 0
11 grant[57] *249:5 6.1284e-05
12 index[0] *249:5 0.000223492
13 *325:A2 *323:A2 2.62886e-05
14 *325:A3 *323:A2 5.41015e-05
15 *327:A1 *323:A2 4.23042e-06
16 *327:A1 *249:11 1.90444e-05
17 *356:A *323:A2 1.48912e-05
18 *357:A *249:11 5.48953e-05
19 *407:B2 *323:A2 5.05753e-05
20 *412:C2 *323:A2 2.35353e-05
21 *417:B2 *323:A2 5.6063e-06
22 *24:12 *323:A2 2.75346e-06
23 *220:12 *249:11 0
24 *241:17 *249:11 8.70497e-06
25 *243:13 *323:A2 6.29568e-05
26 *243:17 *249:11 0.000100916
27 *246:21 *323:A2 7.53491e-05
*RES
1 req[24] *249:5 135.036 
2 *249:5 *249:11 29.4107 
3 *249:11 *323:A2 34.5536 
*END

*D_NET *250 0.00421991
*CONN
*P req[25] I
*I *323:A1 I *D NOR3_X1
*I *355:B2 I *D AOI21_X1
*CAP
1 req[25] 0.000294948
2 *323:A1 0
3 *355:B2 5.05483e-05
4 *250:41 0.000133356
5 *250:37 0.000358581
6 *250:27 0.000453113
7 *250:19 0.000367688
8 *250:5 0.000485297
9 *355:B2 *252:13 3.83909e-06
10 *250:19 *410:A 1.11373e-05
11 *250:19 *410:B 6.84417e-06
12 *250:19 *277:49 1.52083e-06
13 *250:19 *277:55 7.77137e-05
14 *250:19 *290:13 3.65322e-06
15 *250:19 *290:23 0.000223021
16 *250:27 *410:A 2.39679e-06
17 *250:37 *253:13 3.78657e-06
18 grant[10] *250:5 0.000239578
19 grant[10] *250:19 3.93351e-06
20 grant[1] *250:5 0.000171516
21 *323:A2 *355:B2 2.75346e-06
22 *323:A2 *250:41 2.07819e-05
23 *355:B1 *355:B2 7.4863e-06
24 *362:A *355:B2 0
25 *362:B1 *355:B2 3.23723e-07
26 *407:B2 *250:41 3.82997e-06
27 *409:A *250:27 1.32348e-05
28 *409:B1 *250:27 4.29179e-05
29 *411:A *250:27 1.80284e-05
30 *411:C1 *250:27 2.05798e-05
31 *412:C2 *250:37 5.86754e-06
32 *412:C2 *250:41 3.71052e-05
33 *417:A *250:41 1.95844e-05
34 *417:B1 *355:B2 1.21774e-06
35 *417:B1 *250:41 3.92836e-05
36 *24:12 *355:B2 1.34984e-05
37 *32:10 *250:27 9.57492e-07
38 *32:21 *250:27 6.55107e-05
39 *77:10 *250:37 0
40 *104:16 *250:37 1.72405e-05
41 *115:16 *250:41 3.29442e-05
42 *173:28 *250:19 3.12276e-05
43 *238:17 *250:19 4.76841e-05
44 *238:17 *250:27 8.21788e-05
45 *239:27 *250:5 1.20522e-05
46 *239:27 *250:19 9.29862e-05
47 *246:13 *250:19 1.74934e-05
48 *246:13 *250:37 0.000266965
49 *247:15 *250:5 0.000142553
50 *247:17 *250:5 3.65322e-06
51 *247:17 *250:37 0.000267497
*RES
1 req[25] *250:5 51.4286 
2 *250:5 *250:19 42.7857 
3 *250:19 *250:27 34.3929 
4 *250:27 *250:37 46.25 
5 *250:37 *250:41 17.75 
6 *250:41 *355:B2 10.75 
7 *250:41 *323:A1 5 
*END

*D_NET *251 0.00482975
*CONN
*P req[26] I
*I *322:A2 I *D OR2_X1
*I *354:A I *D INV_X1
*CAP
1 req[26] 0.00035152
2 *322:A2 8.19291e-06
3 *354:A 7.25898e-05
4 *251:21 0.000267617
5 *251:17 0.00043138
6 *251:9 0.000769518
7 *251:7 0.000559154
8 *251:5 0.000385702
9 *322:A2 *274:17 1.08179e-05
10 *354:A *274:17 4.20906e-05
11 *354:A *286:33 5.49744e-05
12 *251:9 *260:23 0
13 *251:17 *268:43 0
14 *251:17 *268:49 0
15 *251:21 *252:9 0.000128348
16 *251:21 *274:17 0.000164641
17 grant[14] *251:5 0.000189055
18 index[5] *251:5 0.000203859
19 *314:A1 *251:21 0.000221992
20 *355:B1 *354:A 3.40142e-05
21 *420:A *251:17 3.6262e-05
22 *421:B *251:21 5.54348e-05
23 *422:A2 *251:9 4.45502e-05
24 *422:A2 *251:17 0
25 *450:A *251:9 3.41458e-06
26 *450:C2 *251:9 1.80284e-05
27 *453:A1 *251:9 4.21607e-06
28 *464:A2 *251:5 0
29 *470:A2 *251:9 3.05041e-06
30 *20:38 *251:17 2.82617e-05
31 *20:49 *251:17 1.52083e-06
32 *21:23 *251:9 3.12001e-05
33 *24:12 *354:A 2.77692e-05
34 *24:12 *251:21 4.78324e-06
35 *119:18 *251:17 0.000215893
36 *121:36 *251:9 0
37 *129:8 *251:17 8.3442e-06
38 *138:12 *251:17 7.57563e-05
39 *139:22 *251:9 0
40 *150:12 *251:9 0
41 *150:18 *251:9 0
42 *160:68 *251:5 0
43 *165:20 *251:9 0
44 *165:22 *251:5 7.93135e-06
45 *182:10 *251:17 7.93012e-05
46 *220:12 *354:A 3.34509e-06
47 *227:33 *251:9 0
48 *227:50 *251:5 2.24381e-05
49 *227:50 *251:9 0
50 *228:14 *251:17 2.87672e-05
51 *228:29 *251:9 9.63598e-05
52 *228:36 *251:9 0.000107293
53 *228:55 *251:9 3.03665e-05
54 *229:66 *251:9 0
55 *230:116 *251:9 0
56 *232:90 *251:5 0
*RES
1 req[26] *251:5 51.4286 
2 *251:5 *251:7 3.64286 
3 *251:7 *251:9 59.3572 
4 *251:9 *251:17 45.5714 
5 *251:17 *251:21 40.2143 
6 *251:21 *354:A 21.9286 
7 *251:21 *322:A2 11.3214 
*END

*D_NET *252 0.00619238
*CONN
*P req[27] I
*I *322:A1 I *D OR2_X1
*I *355:A I *D AOI21_X1
*CAP
1 req[27] 0.00081106
2 *322:A1 0
3 *355:A 6.62225e-06
4 *252:13 2.71572e-05
5 *252:9 0.000621655
6 *252:7 0.00060112
7 *252:5 0.00081106
8 *252:5 *256:5 0.000558477
9 *252:5 *285:5 0.000674633
10 *252:9 *302:A 3.76049e-05
11 *252:9 *281:13 0
12 *252:9 *282:25 0.000138457
13 *304:A1 *252:9 2.06764e-05
14 *355:B1 *252:13 7.16188e-07
15 *355:B2 *252:13 3.83909e-06
16 *362:A *355:A 6.56185e-06
17 *362:A *252:13 2.21505e-05
18 *421:B *252:9 2.80513e-05
19 *421:C1 *252:9 4.33419e-06
20 *5:10 *252:9 2.04312e-06
21 *7:10 *252:9 4.62745e-06
22 *24:12 *252:9 4.24402e-05
23 *93:10 *252:9 0.000243842
24 *94:14 *252:9 0.000105288
25 *220:10 *252:9 5.06473e-05
26 *220:12 *252:9 0.00114339
27 *245:5 *252:5 0
28 *245:9 *252:9 6.31065e-05
29 *248:5 *252:5 3.44743e-05
30 *251:21 *252:9 0.000128348
*RES
1 req[27] *252:5 139.536 
2 *252:5 *252:7 5 
3 *252:7 *252:9 110.179 
4 *252:9 *252:13 7.75 
5 *252:13 *355:A 5.92857 
6 *252:13 *322:A1 5 
*END

*D_NET *253 0.00475252
*CONN
*P req[28] I
*I *353:A I *D INV_X1
*I *321:A4 I *D NOR4_X2
*CAP
1 req[28] 0.000285946
2 *353:A 8.71307e-06
3 *321:A4 1.18029e-05
4 *253:17 2.71461e-05
5 *253:13 0.000383215
6 *253:11 0.000376585
7 *253:9 0.00039359
8 *253:7 0.00040867
9 *253:5 0.000301027
10 *321:A4 *269:17 2.08416e-06
11 *253:5 *263:11 8.60773e-06
12 *253:5 *273:5 0.000121661
13 *253:9 *273:5 0.000358655
14 *253:13 *257:21 0
15 *253:13 *257:25 0
16 *253:13 *273:9 5.02771e-05
17 *253:13 *290:29 3.14023e-05
18 *253:17 *269:17 6.48216e-07
19 *328:A2 *253:13 9.27512e-05
20 *363:B1 *253:13 0.000131824
21 *363:B2 *253:13 0.000220415
22 *412:C2 *253:13 6.61473e-05
23 *17:14 *321:A4 4.21607e-06
24 *17:14 *253:17 1.68643e-06
25 *23:12 *253:13 0.000220167
26 *23:16 *253:13 4.76429e-07
27 *78:10 *253:13 0
28 *104:16 *253:13 6.08869e-06
29 *115:16 *253:13 6.66025e-06
30 *220:16 *253:9 7.30645e-06
31 *241:5 *253:5 3.82719e-06
32 *241:13 *253:9 0.000616627
33 *242:13 *253:5 0.000554216
34 *242:13 *253:9 4.62982e-05
35 *250:37 *253:13 3.78657e-06
*RES
1 req[28] *253:5 51.4286 
2 *253:5 *253:7 1.60714 
3 *253:7 *253:9 74.8572 
4 *253:9 *253:11 5 
5 *253:11 *253:13 54.5357 
6 *253:13 *253:17 5.75 
7 *253:17 *321:A4 6.25 
8 *253:17 *353:A 5.92857 
*END

*D_NET *254 0.00347171
*CONN
*P req[29] I
*I *363:A I *D AOI21_X1
*I *321:A3 I *D NOR4_X2
*CAP
1 req[29] 0.000443036
2 *363:A 0
3 *321:A3 2.39637e-05
4 *254:25 4.1144e-05
5 *254:23 0.00026454
6 *254:13 0.000622844
7 *254:5 0.00081852
8 *321:A3 *290:29 0.000107955
9 *254:5 *255:13 0
10 *254:5 *258:11 2.05033e-06
11 *254:5 *262:11 3.23723e-07
12 *254:5 *266:11 0
13 *254:13 *336:A 0
14 *254:13 *255:13 0
15 *254:13 *258:27 1.74934e-05
16 *254:13 *261:15 0
17 *254:13 *297:14 1.48981e-05
18 *254:23 *313:A4 1.00295e-05
19 *254:23 *258:27 9.16022e-05
20 *254:23 *261:15 2.67719e-05
21 *254:23 *261:17 0.000202183
22 *339:A1 *254:13 1.77455e-05
23 *339:A2 *254:13 0
24 *363:B1 *321:A3 0.000107416
25 *407:A *254:23 0
26 *426:A2 *254:23 7.18518e-05
27 *23:12 *254:23 0.000156232
28 *63:6 *254:25 2.39679e-06
29 *78:10 *254:23 4.69645e-06
30 *115:16 *254:23 5.7295e-06
31 *222:12 *321:A3 3.65322e-06
32 *222:12 *254:25 4.40334e-06
33 *235:11 *254:5 1.1796e-05
34 *235:13 *254:13 0.000236932
35 *246:5 *254:5 0.000108922
36 *246:5 *254:13 5.25811e-05
*RES
1 req[29] *254:5 51.4286 
2 *254:5 *254:13 48.5 
3 *254:13 *254:23 49.75 
4 *254:23 *254:25 1.75 
5 *254:25 *321:A3 21.4286 
6 *254:25 *363:A 5 
*END

*D_NET *255 0.00434827
*CONN
*P req[2] I
*I *336:A I *D INV_X1
*I *372:B1 I *D OAI21_X1
*CAP
1 req[2] 2.88157e-05
2 *336:A 8.11737e-05
3 *372:B1 9.06797e-06
4 *255:13 0.000624575
5 *255:11 0.000534334
6 *255:9 0.000378731
7 *255:7 0.000407547
8 *372:B1 *266:17 1.61803e-06
9 *255:7 *289:19 1.19839e-05
10 *255:9 *280:11 3.22236e-05
11 *255:9 *283:9 1.92691e-05
12 *255:9 *287:11 6.03486e-06
13 *255:13 *266:11 8.34032e-05
14 *255:13 *266:15 0.000191338
15 *255:13 *266:17 5.0463e-05
16 grant[2] *255:9 5.53579e-05
17 grant[31] *255:9 2.94435e-05
18 grant[46] *255:7 8.89183e-06
19 grant[46] *255:9 2.79474e-05
20 grant[48] *255:7 9.63927e-06
21 *338:A1 *336:A 0
22 *339:A1 *336:A 0
23 *372:B2 *336:A 3.19164e-07
24 *372:B2 *372:B1 8.43215e-07
25 *38:12 *336:A 1.04006e-05
26 *170:10 *255:9 0.00131295
27 *193:20 *255:9 2.50285e-05
28 *203:20 *255:7 7.19036e-06
29 *235:11 *255:9 5.54348e-05
30 *244:9 *255:9 0.00034425
31 *254:5 *255:13 0
32 *254:13 *336:A 0
33 *254:13 *255:13 0
*RES
1 req[2] *255:7 8.53572 
2 *255:7 *255:9 76.25 
3 *255:9 *255:11 5 
4 *255:11 *255:13 67.75 
5 *255:13 *372:B1 6.25 
6 *255:13 *336:A 14.6429 
*END

*D_NET *256 0.004914
*CONN
*P req[30] I
*I *443:C2 I *D OAI221_X1
*I *364:B1 I *D OAI21_X1
*I *404:A2 I *D NOR2_X1
*I *321:A2 I *D NOR4_X2
*CAP
1 req[30] 0.000646118
2 *443:C2 1.42332e-05
3 *364:B1 0
4 *404:A2 0
5 *321:A2 4.65052e-05
6 *256:27 0.000100974
7 *256:23 0.000100992
8 *256:13 0.000603991
9 *256:11 0.000766114
10 *256:5 0.000868997
11 *321:A2 *321:A1 3.74114e-05
12 *321:A2 *404:A1 2.44885e-06
13 *443:B1 *443:C2 5.90251e-06
14 *443:B1 *256:23 2.98244e-06
15 *443:B2 *256:23 1.21774e-06
16 *443:B2 *256:27 3.09411e-06
17 *443:C1 *256:23 1.68643e-06
18 *443:C1 *256:27 8.43215e-07
19 *17:14 *443:C2 1.67775e-05
20 *17:14 *256:27 0
21 *20:75 *256:13 0
22 *52:16 *256:27 0
23 *63:6 *321:A2 2.50346e-06
24 *63:6 *256:27 2.5389e-05
25 *111:18 *256:13 0.000268148
26 *111:18 *256:23 5.74483e-05
27 *138:12 *256:13 9.55926e-06
28 *164:8 *256:13 0.000187926
29 *164:8 *256:23 1.24505e-05
30 *222:12 *256:23 3.30047e-06
31 *228:14 *256:13 1.00295e-05
32 *248:5 *256:5 0.000558477
33 *252:5 *256:5 0.000558477
*RES
1 req[30] *256:5 115.536 
2 *256:5 *256:11 28.0536 
3 *256:11 *256:13 69.8036 
4 *256:13 *256:23 11.8929 
5 *256:23 *256:27 6.67857 
6 *256:27 *321:A2 11.6071 
7 *256:27 *404:A2 5 
8 *256:23 *364:B1 5 
9 *256:13 *443:C2 11.75 
*END

*D_NET *257 0.00506663
*CONN
*P req[31] I
*I *352:A I *D INV_X1
*I *404:A1 I *D NOR2_X1
*I *321:A1 I *D NOR4_X2
*CAP
1 req[31] 0.000485943
2 *352:A 5.10541e-06
3 *404:A1 1.20017e-05
4 *321:A1 2.64263e-05
5 *257:25 4.57889e-05
6 *257:21 0.000191434
7 *257:13 0.000633825
8 *257:11 0.000552195
9 *257:5 0.00058328
10 *257:5 *280:13 0.0010538
11 *257:5 *291:11 2.05033e-06
12 *257:21 *269:13 0.000106535
13 grant[59] *257:5 0.000465569
14 grant[62] *257:5 1.28122e-06
15 *315:A1 *257:21 9.18164e-06
16 *321:A2 *321:A1 3.74114e-05
17 *321:A2 *404:A1 2.44885e-06
18 *428:A1 *257:13 2.26306e-06
19 *432:A1 *257:13 2.72417e-06
20 *432:A2 *257:13 1.51304e-05
21 *443:C1 *257:21 7.72537e-06
22 *450:B *257:13 1.32594e-05
23 *477:A3 *257:11 6.36399e-05
24 *496:A1 *257:11 1.11168e-06
25 *11:48 *257:13 1.72113e-05
26 *17:14 *321:A1 1.79884e-05
27 *17:14 *352:A 3.19546e-06
28 *17:14 *257:21 0.000108993
29 *17:18 *257:21 6.42887e-07
30 *20:10 *257:13 0
31 *20:27 *257:13 0
32 *78:10 *257:21 4.11048e-05
33 *78:10 *257:25 1.66988e-05
34 *143:10 *257:13 5.83716e-05
35 *155:8 *257:13 4.62991e-06
36 *157:8 *257:13 1.22474e-05
37 *157:19 *257:13 4.65748e-05
38 *157:34 *257:11 3.61426e-05
39 *157:34 *257:13 5.28158e-06
40 *159:8 *257:13 0
41 *203:10 *257:11 8.12996e-06
42 *219:8 *257:13 2.66066e-05
43 *221:16 *257:11 5.95537e-05
44 *221:16 *257:13 0.000271522
45 *230:32 *257:13 1.16042e-05
46 *253:13 *257:21 0
47 *253:13 *257:25 0
*RES
1 req[31] *257:5 97.5358 
2 *257:5 *257:11 18.3571 
3 *257:11 *257:13 56.25 
4 *257:13 *257:21 36.5357 
5 *257:21 *257:25 5.92857 
6 *257:25 *321:A1 9.25 
7 *257:25 *404:A1 6.67857 
8 *257:21 *352:A 10.75 
*END

*D_NET *258 0.0041476
*CONN
*P req[32] I
*I *313:A4 I *D OR4_X1
*CAP
1 req[32] 5.27829e-05
2 *313:A4 0.000255922
3 *258:27 0.000474511
4 *258:13 0.000761716
5 *258:11 0.00059591
6 *313:A4 *313:A3 7.72537e-06
7 *313:A4 *260:25 0.000123871
8 *313:A4 *265:37 3.22766e-05
9 *258:11 *262:11 2.60945e-06
10 *258:13 *261:15 2.27588e-05
11 *258:13 *265:37 0
12 *314:A3 *313:A4 3.38217e-05
13 *316:A *258:27 4.12459e-06
14 *339:A2 *258:27 3.83909e-06
15 *407:A *313:A4 1.51304e-05
16 *418:B1 *258:27 4.48647e-05
17 *418:B2 *258:27 1.6291e-05
18 *426:A2 *258:27 4.41821e-05
19 *485:A2 *258:13 7.34989e-06
20 *502:A3 *258:13 0
21 *23:12 *313:A4 4.52612e-06
22 *115:16 *258:27 9.83189e-05
23 *116:8 *258:27 9.68176e-06
24 *160:97 *258:13 3.23723e-07
25 *179:18 *258:11 4.43868e-06
26 *196:16 *258:13 0.000108076
27 *219:8 *258:27 2.3767e-06
28 *222:12 *258:13 0
29 *226:22 *258:13 0.000113637
30 *235:13 *258:13 0.00098568
31 *235:21 *258:27 2.89018e-05
32 *238:15 *258:13 5.52394e-05
33 *242:11 *258:11 0.000105834
34 *242:11 *258:13 7.19036e-06
35 *246:5 *258:13 2.51631e-06
36 *254:5 *258:11 2.05033e-06
37 *254:13 *258:27 1.74934e-05
38 *254:23 *313:A4 1.00295e-05
39 *254:23 *258:27 9.16022e-05
*RES
1 req[32] *258:11 16.8929 
2 *258:11 *258:13 93.75 
3 *258:13 *258:27 47.7143 
4 *258:27 *313:A4 43.5714 
*END

*D_NET *259 0.00585348
*CONN
*P req[33] I
*I *313:A3 I *D OR4_X1
*I *386:B2 I *D AOI21_X1
*CAP
1 req[33] 0.000297794
2 *313:A3 4.57984e-06
3 *386:B2 6.84934e-05
4 *259:17 0.000634942
5 *259:15 0.000759131
6 *259:9 0.000642653
7 *259:7 0.000460471
8 *259:5 0.000312874
9 *313:A3 *385:A 2.75346e-06
10 *313:A3 *260:25 7.72537e-06
11 *386:B2 *386:A 8.91741e-06
12 *386:B2 *399:A 2.13573e-06
13 *386:B2 *261:17 4.97191e-06
14 *386:B2 *261:21 2.42487e-05
15 *259:5 *291:13 4.77381e-05
16 *259:9 *305:A1 6.48216e-07
17 *259:9 *291:13 0.000827361
18 *259:9 *291:23 1.21774e-06
19 *259:15 *303:A1 0
20 *259:15 *394:A 2.13613e-05
21 *259:15 *280:17 0
22 *259:15 *291:23 0.000197169
23 *259:17 *298:A1 6.82967e-05
24 *259:17 *342:A 0
25 *259:17 *393:B1 0
26 *259:17 *284:9 0
27 *259:17 *285:9 0
28 *259:17 *292:37 0
29 grant[55] *259:5 0.000148472
30 grant[58] *259:5 0.000156622
31 *306:A4 *259:15 0
32 *313:A4 *313:A3 7.72537e-06
33 *345:B1 *259:17 0.000106626
34 *346:B2 *259:17 0.000250896
35 *386:B1 *386:B2 2.52965e-06
36 *394:C1 *259:15 3.23723e-07
37 *394:C2 *259:15 0
38 *400:B1 *386:B2 3.09143e-06
39 *469:A1 *259:9 0
40 *477:A1 *259:9 9.62051e-07
41 *1:12 *259:17 1.02238e-05
42 *6:6 *259:15 0
43 *7:10 *259:15 1.25215e-05
44 *8:6 *259:15 1.76665e-06
45 *15:36 *259:17 0
46 *20:75 *259:9 0
47 *85:8 *259:17 0
48 *151:33 *259:9 0
49 *166:8 *259:9 0
50 *167:6 *259:5 0.000217761
51 *167:6 *259:9 2.36946e-05
52 *203:14 *259:9 0.000168336
53 *222:8 *259:17 0.000346445
*RES
1 req[33] *259:5 51.4286 
2 *259:5 *259:7 1.60714 
3 *259:7 *259:9 75.8572 
4 *259:9 *259:15 30.6786 
5 *259:15 *259:17 78.2857 
6 *259:17 *386:B2 17.5357 
7 *259:17 *313:A3 10.75 
*END

*D_NET *260 0.00736647
*CONN
*P req[34] I
*I *313:A2 I *D OR4_X1
*I *385:A I *D INV_X1
*CAP
1 req[34] 0.00059553
2 *313:A2 0
3 *385:A 4.80275e-05
4 *260:25 0.000326973
5 *260:23 0.000430822
6 *260:15 0.000399968
7 *260:11 0.000555784
8 *260:5 0.000903222
9 *385:A *386:A 2.85072e-05
10 *385:A *261:17 2.75346e-06
11 *385:A *261:21 1.56694e-05
12 *385:A *265:37 7.34533e-06
13 *260:5 *264:5 0.000518569
14 *260:5 *292:5 0.000518569
15 *260:25 *261:17 0.000472082
16 *260:25 *265:37 0
17 *313:A3 *385:A 2.75346e-06
18 *313:A3 *260:25 7.72537e-06
19 *313:A4 *260:25 0.000123871
20 *378:B1 *260:25 3.23723e-07
21 *378:B2 *260:25 5.52692e-06
22 *422:A1 *260:23 0.000616141
23 *468:A1 *260:15 7.98387e-05
24 *470:A2 *260:23 3.74512e-05
25 *477:A1 *260:15 7.54346e-07
26 *21:35 *260:15 5.33208e-05
27 *21:35 *260:23 2.17109e-05
28 *21:46 *260:15 7.77402e-05
29 *78:10 *260:25 1.18607e-05
30 *121:8 *260:15 4.26902e-05
31 *121:12 *260:23 6.48216e-07
32 *121:85 *260:15 0.000131941
33 *151:39 *260:15 4.52612e-06
34 *166:10 *260:15 3.18553e-05
35 *168:10 *260:15 0
36 *201:12 *260:15 0.000585659
37 *217:12 *260:15 0
38 *237:29 *260:23 0.000706314
39 *251:9 *260:23 0
*RES
1 req[34] *260:5 107.036 
2 *260:5 *260:11 35.8393 
3 *260:11 *260:15 48.3393 
4 *260:15 *260:23 49.8214 
5 *260:23 *260:25 44.75 
6 *260:25 *385:A 11.6071 
7 *260:25 *313:A2 5 
*END

*D_NET *261 0.00735427
*CONN
*P req[35] I
*I *313:A1 I *D OR4_X1
*I *386:A I *D AOI21_X1
*I *399:A I *D INV_X1
*CAP
1 req[35] 0.000474621
2 *313:A1 0
3 *386:A 3.05383e-05
4 *399:A 7.12601e-05
5 *261:21 0.000112696
6 *261:17 0.000309435
7 *261:15 0.000500468
8 *261:9 0.000861184
9 *261:7 0.000659253
10 *261:5 0.000474621
11 *261:5 *285:5 0.000411405
12 *261:5 *292:5 0.000411405
13 *261:9 *296:9 0.00197915
14 *261:15 *265:37 0
15 *261:17 *265:37 0
16 *362:A *261:17 0
17 *385:A *386:A 2.85072e-05
18 *385:A *261:17 2.75346e-06
19 *385:A *261:21 1.56694e-05
20 *386:B1 *386:A 7.19036e-06
21 *386:B2 *386:A 8.91741e-06
22 *386:B2 *399:A 2.13573e-06
23 *386:B2 *261:17 4.97191e-06
24 *386:B2 *261:21 2.42487e-05
25 *400:B1 *386:A 2.3767e-06
26 *400:B1 *399:A 1.05067e-05
27 *475:A1 *261:9 2.08098e-06
28 *478:A2 *261:9 4.85473e-05
29 *481:A *261:9 5.55992e-05
30 *514:A3 *261:9 4.04742e-06
31 *20:10 *261:15 1.08561e-05
32 *25:12 *261:17 0
33 *85:8 *386:A 2.84765e-06
34 *115:16 *261:17 3.23723e-07
35 *151:31 *261:9 4.36e-05
36 *158:10 *261:9 2.9824e-06
37 *204:10 *261:9 0
38 *204:14 *261:9 3.95789e-05
39 *229:37 *261:9 1.66988e-05
40 *254:13 *261:15 0
41 *254:23 *261:15 2.67719e-05
42 *254:23 *261:17 0.000202183
43 *258:13 *261:15 2.27588e-05
44 *260:25 *261:17 0.000472082
*RES
1 req[35] *261:5 85.0358 
2 *261:5 *261:7 5 
3 *261:7 *261:9 106.107 
4 *261:9 *261:15 28.3572 
5 *261:15 *261:17 45.75 
6 *261:17 *261:21 7.25 
7 *261:21 *399:A 17.75 
8 *261:21 *386:A 14.3571 
9 *261:17 *313:A1 5 
*END

*D_NET *262 0.00446709
*CONN
*P req[36] I
*I *312:A4 I *D OR4_X1
*CAP
1 req[36] 2.33145e-05
2 *312:A4 7.16578e-05
3 *262:13 0.00206605
4 *262:11 0.0020177
5 *312:A4 *312:A2 6.56007e-06
6 *312:A4 *312:A3 7.19036e-06
7 *312:A4 *383:A 3.55053e-06
8 *312:A4 *401:A2 4.21607e-06
9 *312:A4 *265:41 4.43868e-06
10 *312:A4 *265:49 2.94455e-05
11 *312:A4 *270:17 0.000157127
12 *262:11 *266:11 4.90968e-06
13 *262:13 *278:19 4.83815e-07
14 *262:13 *286:31 9.1073e-06
15 *387:A *312:A4 5.10087e-06
16 *15:8 *312:A4 1.73125e-05
17 *179:18 *262:11 1.72455e-05
18 *233:21 *262:13 9.68603e-07
19 *234:15 *262:13 0
20 *244:9 *262:11 1.77851e-05
21 *254:5 *262:11 3.23723e-07
22 *258:11 *262:11 2.60945e-06
*RES
1 req[36] *262:11 13 
2 *262:11 *262:13 68.04 
3 *262:13 *312:A4 26.6071 
*END

*D_NET *263 0.00531
*CONN
*P req[37] I
*I *312:A3 I *D OR4_X1
*I *384:B2 I *D AOI21_X1
*CAP
1 req[37] 3.6296e-05
2 *312:A3 3.6358e-05
3 *384:B2 0
4 *263:53 0.000267794
5 *263:51 0.000558116
6 *263:45 0.000661622
7 *263:31 0.0004646
8 *263:13 0.000478199
9 *263:11 0.000384838
10 *312:A3 *312:A2 7.19036e-06
11 *312:A3 *264:13 2.84765e-06
12 *312:A3 *270:17 1.31403e-05
13 *312:A3 *272:13 4.92317e-06
14 *263:11 *273:5 9.16951e-06
15 *263:13 *331:A4 2.75346e-06
16 *263:13 *295:17 0.00028609
17 *263:31 *331:A3 7.49642e-07
18 *263:31 *331:A4 0.000185525
19 *263:31 *368:B2 9.50933e-07
20 *263:31 *296:13 1.10884e-05
21 *263:31 *296:15 9.50933e-07
22 *263:45 *331:A3 8.43215e-07
23 *263:45 *368:B2 1.85502e-05
24 *263:45 *279:11 2.31472e-05
25 *263:53 *270:17 4.8358e-05
26 *263:53 *272:11 0.00019321
27 *263:53 *272:13 0.000119188
28 grant[61] *263:13 2.44716e-05
29 *312:A4 *312:A3 7.19036e-06
30 *327:A1 *263:45 7.66675e-07
31 *331:A1 *263:31 8.28248e-06
32 *331:A2 *263:31 3.32169e-05
33 *366:A *263:45 6.82202e-07
34 *375:A *263:45 0
35 *375:B2 *263:31 1.96924e-05
36 *376:A *263:45 3.54431e-05
37 *376:B1 *263:45 1.02845e-05
38 *377:A *263:45 0
39 *377:B2 *263:45 9.62961e-06
40 *384:B1 *312:A3 5.46411e-05
41 *441:B2 *263:45 2.50396e-05
42 *442:B2 *263:45 9.57492e-07
43 *169:14 *263:31 5.41015e-05
44 *170:10 *263:11 1.27487e-05
45 *179:18 *263:11 6.63045e-05
46 *220:16 *263:51 3.09149e-05
47 *241:5 *263:13 0.000746362
48 *241:13 *263:51 2.42461e-05
49 *241:17 *263:45 1.09659e-05
50 *242:13 *263:13 2.71691e-06
51 *242:13 *263:31 0.00019887
52 *242:23 *263:45 0.000107359
53 *249:11 *263:45 0
54 *253:5 *263:11 8.60773e-06
*RES
1 req[37] *263:11 15.6786 
2 *263:11 *263:13 69.25 
3 *263:13 *263:31 36.8214 
4 *263:31 *263:45 49.9286 
5 *263:45 *263:51 46.25 
6 *263:51 *263:53 36.8929 
7 *263:53 *384:B2 10 
8 *263:53 *312:A3 16.0714 
*END

*D_NET *264 0.00583632
*CONN
*P req[38] I
*I *383:A I *D INV_X1
*I *401:A2 I *D NOR3_X1
*I *312:A2 I *D OR4_X1
*CAP
1 req[38] 0.00112404
2 *383:A 2.02888e-05
3 *401:A2 2.05249e-05
4 *312:A2 1.34291e-05
5 *264:13 5.53485e-05
6 *264:9 0.000859514
7 *264:7 0.000817831
8 *264:5 0.00112404
9 *312:A2 *265:49 2.35353e-05
10 *401:A2 *401:A1 7.72537e-06
11 *401:A2 *265:49 1.45591e-05
12 *264:5 *276:11 1.42277e-05
13 *264:5 *281:5 0.000333221
14 *264:5 *292:5 9.83116e-05
15 *264:9 *388:A 9.0173e-05
16 *264:9 *389:B1 1.35124e-05
17 *264:9 *397:A1 4.70957e-06
18 *264:9 *267:19 4.76429e-07
19 *264:9 *268:57 1.41532e-05
20 *264:9 *270:17 0.000275556
21 *264:9 *270:28 3.76506e-05
22 *264:9 *271:19 7.62417e-05
23 *264:9 *272:13 0
24 *264:13 *270:17 6.70982e-05
25 *312:A3 *312:A2 7.19036e-06
26 *312:A3 *264:13 2.84765e-06
27 *312:A4 *312:A2 6.56007e-06
28 *312:A4 *383:A 3.55053e-06
29 *312:A4 *401:A2 4.21607e-06
30 *384:B1 *264:9 2.72417e-06
31 *384:B1 *264:13 1.01993e-05
32 *387:A *401:A2 1.89851e-06
33 *388:B1 *264:9 2.32054e-05
34 *388:C1 *264:9 3.50282e-05
35 *388:C2 *264:9 4.12796e-06
36 *389:A *264:9 9.90601e-06
37 *389:B2 *264:9 9.05228e-06
38 *390:B1 *264:9 1.16685e-05
39 *390:B2 *264:9 2.99163e-05
40 *401:A3 *401:A2 2.39679e-06
41 *402:A *264:9 4.31002e-05
42 *15:8 *383:A 3.09143e-06
43 *15:8 *401:A2 9.01846e-07
44 *260:5 *264:5 0.000518569
*RES
1 req[38] *264:5 164.536 
2 *264:5 *264:7 5 
3 *264:7 *264:9 108.821 
4 *264:9 *264:13 8.64286 
5 *264:13 *312:A2 7.25 
6 *264:13 *401:A2 7.75 
7 *264:9 *383:A 12.25 
*END

*D_NET *265 0.0050404
*CONN
*P req[39] I
*I *401:A1 I *D NOR3_X1
*I *312:A1 I *D OR4_X1
*I *384:A I *D AOI21_X1
*CAP
1 req[39] 3.79962e-05
2 *401:A1 5.55543e-06
3 *312:A1 0
4 *384:A 8.71307e-06
5 *265:49 5.07415e-05
6 *265:41 7.21952e-05
7 *265:37 0.000654007
8 *265:35 0.000716871
9 *265:25 0.000327232
10 *265:9 0.000501347
11 *265:7 0.000299587
12 *265:7 *268:15 5.88717e-06
13 *265:9 *268:15 0.000326056
14 *265:35 *297:16 0.000143952
15 *265:41 *270:17 3.69346e-06
16 grant[23] *265:7 1.3917e-06
17 *312:A2 *265:49 2.35353e-05
18 *312:A4 *265:41 4.43868e-06
19 *312:A4 *265:49 2.94455e-05
20 *313:A4 *265:37 3.22766e-05
21 *314:A3 *265:37 3.32599e-05
22 *318:A *265:25 6.29595e-05
23 *378:B1 *265:37 4.78054e-06
24 *378:B2 *265:37 1.59582e-06
25 *385:A *265:37 7.34533e-06
26 *387:A *265:41 6.84316e-05
27 *387:A *265:49 1.80335e-05
28 *387:B1 *265:37 2.08416e-06
29 *388:C2 *265:41 2.16603e-05
30 *401:A2 *401:A1 7.72537e-06
31 *401:A2 *265:49 1.45591e-05
32 *402:C1 *265:41 5.39412e-06
33 *460:A3 *265:9 4.28905e-05
34 *503:A1 *265:25 6.06596e-05
35 *503:A2 *265:25 1.68643e-06
36 *503:A3 *265:25 8.98274e-07
37 *15:8 *401:A1 2.52965e-06
38 *15:21 *265:37 0
39 *15:36 *265:37 0
40 *20:10 *265:37 5.58661e-05
41 *78:10 *265:37 1.08945e-05
42 *128:10 *265:25 6.01288e-05
43 *146:31 *265:25 1.25215e-05
44 *166:24 *265:25 4.21371e-05
45 *166:26 *265:7 2.76156e-05
46 *166:26 *265:9 4.71965e-05
47 *166:26 *265:25 0.000164383
48 *182:12 *265:25 0
49 *186:26 *265:25 5.41015e-05
50 *192:12 *265:25 1.79884e-05
51 *210:10 *265:9 0.000286435
52 *222:12 *265:37 0.0003061
53 *223:8 *265:9 5.80888e-05
54 *228:67 *265:35 0.000223563
55 *231:27 *265:9 1.73151e-05
56 *239:19 *265:25 5.46453e-05
57 *258:13 *265:37 0
58 *260:25 *265:37 0
59 *261:15 *265:37 0
60 *261:17 *265:37 0
*RES
1 req[39] *265:7 4.64286 
2 *265:7 *265:9 47.75 
3 *265:9 *265:25 47.5714 
4 *265:25 *265:35 27.3571 
5 *265:35 *265:37 79.25 
6 *265:37 *265:41 10 
7 *265:41 *265:49 11.1071 
8 *265:49 *384:A 5.92857 
9 *265:49 *312:A1 5 
10 *265:41 *401:A1 10.75 
*END

*D_NET *266 0.00206115
*CONN
*P req[3] I
*I *438:A I *D AOI21_X1
*I *335:A I *D INV_X1
*CAP
1 req[3] 9.59823e-05
2 *438:A 0
3 *335:A 9.64324e-05
4 *266:17 0.000237038
5 *266:15 0.000411278
6 *266:11 0.000366655
7 *335:A *274:13 4.80408e-05
8 *335:A *278:21 1.21774e-06
9 *266:11 *270:11 3.6039e-06
10 *266:11 *274:11 4.60047e-06
11 *266:11 *286:17 1.5329e-05
12 *266:15 *286:17 0.000107985
13 *266:17 *286:17 9.24244e-05
14 *337:A2 *335:A 6.56543e-05
15 *338:A1 *335:A 1.68643e-06
16 *338:A3 *335:A 8.98274e-07
17 *371:A *335:A 3.89376e-05
18 *372:B1 *266:17 1.61803e-06
19 *372:B2 *335:A 1.19839e-05
20 *372:B2 *266:17 2.39679e-06
21 *373:C2 *335:A 0.000101284
22 *438:B1 *335:A 7.19036e-06
23 *37:10 *335:A 6.38328e-07
24 *38:12 *335:A 1.19543e-05
25 *39:8 *335:A 8.43215e-07
26 *244:26 *335:A 0
27 *244:26 *266:17 9.01846e-07
28 *246:11 *335:A 4.46014e-06
29 *254:5 *266:11 0
30 *255:13 *266:11 8.34032e-05
31 *255:13 *266:15 0.000191338
32 *255:13 *266:17 5.0463e-05
33 *262:11 *266:11 4.90968e-06
*RES
1 req[3] *266:11 13.1429 
2 *266:11 *266:15 41.5714 
3 *266:15 *266:17 20.8572 
4 *266:17 *335:A 30.2143 
5 *266:17 *438:A 5 
*END

*D_NET *267 0.00551496
*CONN
*P req[40] I
*I *310:A4 I *D NOR4_X2
*CAP
1 req[40] 8.45484e-06
2 *310:A4 0
3 *267:19 0.000178472
4 *267:13 0.0022797
5 *267:11 0.00210968
6 *267:13 *271:13 0
7 *267:13 *277:23 0
8 *267:19 *381:A 5.48953e-05
9 *267:19 *389:B1 3.01743e-06
10 *267:19 *268:57 7.9406e-06
11 *267:19 *271:19 0.00036994
12 *267:19 *272:13 0.000328323
13 grant[39] *267:11 2.60945e-06
14 grant[40] *267:11 1.02605e-05
15 *388:B1 *267:19 1.21072e-05
16 *389:A *267:19 4.37312e-05
17 *389:B2 *267:19 4.78905e-05
18 *390:B2 *267:19 3.01743e-06
19 *499:A3 *267:13 1.8558e-06
20 *186:22 *267:13 3.88279e-05
21 *189:20 *267:13 1.37624e-05
22 *264:9 *267:19 4.76429e-07
*RES
1 req[40] *267:11 11 
2 *267:11 *267:13 70.35 
3 *267:13 *267:19 47.1072 
4 *267:19 *310:A4 5 
*END

*D_NET *268 0.00488803
*CONN
*P req[41] I
*I *388:B2 I *D AOI221_X1
*I *310:A3 I *D NOR4_X2
*CAP
1 req[41] 0.000227236
2 *388:B2 0
3 *310:A3 1.46406e-05
4 *268:57 5.30867e-05
5 *268:49 0.000480489
6 *268:43 0.000615592
7 *268:39 0.000337295
8 *268:29 0.00059031
9 *268:15 0.0006538
10 *268:49 *273:17 0
11 *268:49 *273:25 0
12 *268:57 *310:A1 0
13 *268:57 *388:A 2.52965e-06
14 grant[12] *268:15 3.6039e-06
15 grant[36] *268:15 3.11527e-05
16 *388:B1 *268:57 1.72426e-05
17 *388:C1 *268:57 6.70982e-05
18 *388:C2 *268:49 9.26023e-08
19 *389:B2 *268:57 8.19658e-05
20 *403:B1 *310:A3 8.79329e-07
21 *403:B1 *268:49 0
22 *403:B2 *268:49 0
23 *413:A *268:43 0
24 *413:A *268:49 0
25 *413:B2 *268:43 4.96432e-05
26 *420:A *268:49 1.40569e-05
27 *420:B1 *268:49 2.50966e-05
28 *420:B2 *268:49 1.25215e-05
29 *427:B1 *268:49 2.10799e-05
30 *450:A *268:39 0
31 *450:A *268:43 0
32 *450:B *268:39 1.91498e-06
33 *450:C2 *268:43 3.83453e-06
34 *454:A1 *268:39 1.03334e-06
35 *455:A3 *268:29 6.45079e-06
36 *456:A2 *268:29 1.68643e-06
37 *456:A3 *268:29 9.14816e-06
38 *461:A2 *268:39 4.32144e-07
39 *12:14 *268:49 0
40 *20:27 *268:43 9.12642e-05
41 *21:23 *268:39 0
42 *21:31 *268:43 0
43 *111:18 *268:43 2.43548e-06
44 *124:12 *268:49 2.86475e-06
45 *126:35 *268:39 3.95236e-05
46 *138:12 *268:43 1.66148e-05
47 *139:14 *268:43 0
48 *145:12 *268:39 1.09525e-06
49 *146:8 *268:29 8.28657e-05
50 *161:44 *268:29 4.91569e-06
51 *165:20 *268:39 1.75631e-05
52 *165:22 *268:29 0.000215299
53 *166:20 *268:39 0.00024824
54 *166:20 *268:43 3.46864e-06
55 *184:18 *268:29 2.93661e-08
56 *206:12 *268:15 9.15922e-05
57 *207:8 *268:29 5.56507e-05
58 *211:14 *268:29 1.41333e-05
59 *223:8 *268:15 0.000202421
60 *224:14 *268:29 8.99414e-05
61 *228:14 *268:43 1.40196e-06
62 *232:55 *268:29 1.19839e-05
63 *232:66 *268:29 1.67775e-05
64 *247:9 *268:15 0
65 *251:17 *268:43 0
66 *251:17 *268:49 0
67 *264:9 *268:57 1.41532e-05
68 *265:7 *268:15 5.88717e-06
69 *265:9 *268:15 0.000326056
70 *267:19 *268:57 7.9406e-06
*RES
1 req[41] *268:15 49.2143 
2 *268:15 *268:29 47.5386 
3 *268:29 *268:39 34.5357 
4 *268:39 *268:43 21.8214 
5 *268:43 *268:49 46.8214 
6 *268:49 *268:57 17.7857 
7 *268:57 *310:A3 6.60714 
8 *268:57 *388:B2 5 
*END

*D_NET *269 0.00644081
*CONN
*P req[42] I
*I *398:B1 I *D OAI21_X1
*I *310:A2 I *D NOR4_X2
*I *382:A I *D INV_X1
*CAP
1 req[42] 0.000286628
2 *398:B1 8.04432e-06
3 *310:A2 2.3971e-05
4 *382:A 4.02391e-05
5 *269:34 5.1054e-05
6 *269:17 0.000415469
7 *269:13 0.000904581
8 *269:11 0.00054839
9 *269:9 0.000506303
10 *269:7 0.000792931
11 *310:A2 *310:A1 2.35328e-05
12 *310:A2 *398:B2 4.21607e-06
13 *382:A *310:A1 0
14 *398:B1 *398:B2 4.68638e-06
15 *269:13 *288:9 0.000361031
16 grant[62] *269:7 0
17 grant[7] *269:7 7.43684e-05
18 *314:A2 *269:17 0
19 *314:A3 *269:17 1.19839e-05
20 *315:A1 *269:13 0
21 *319:A *269:13 4.48522e-05
22 *321:A4 *269:17 2.08416e-06
23 *388:C2 *269:34 5.46432e-05
24 *402:A *398:B1 0
25 *402:B *269:34 7.66675e-07
26 *402:C1 *269:34 6.94708e-06
27 *403:B1 *310:A2 5.24746e-07
28 *403:B1 *398:B1 1.40196e-06
29 *419:A1 *269:17 1.05415e-05
30 *420:B2 *269:17 5.74495e-06
31 *427:B2 *269:17 0
32 *428:A2 *269:13 0
33 *428:A2 *269:17 0
34 *515:A *269:13 2.46197e-05
35 *12:25 *398:B1 2.75346e-06
36 *13:8 *310:A2 3.04684e-06
37 *13:8 *382:A 8.5384e-06
38 *13:8 *269:17 0.000125376
39 *14:6 *269:17 0
40 *15:36 *269:17 0
41 *17:14 *269:13 7.45437e-06
42 *17:14 *269:17 0
43 *160:68 *269:9 0.000405468
44 *162:10 *269:13 3.70111e-05
45 *168:26 *269:9 0.000661199
46 *182:12 *269:13 0.000193676
47 *189:22 *269:9 5.32041e-05
48 *190:24 *269:13 0.000208446
49 *231:98 *269:9 0.000214447
50 *239:5 *269:7 0.000203449
51 *253:17 *269:17 6.48216e-07
52 *257:21 *269:13 0.000106535
*RES
1 req[42] *269:7 47.0357 
2 *269:7 *269:9 73.5357 
3 *269:9 *269:11 5 
4 *269:11 *269:13 83.75 
5 *269:13 *269:17 39.0357 
6 *269:17 *382:A 9.32143 
7 *269:17 *269:34 12.9643 
8 *269:34 *310:A2 8.25 
9 *269:34 *398:B1 6.25 
*END

*D_NET *270 0.00636971
*CONN
*P req[43] I
*I *388:A I *D AOI221_X1
*I *310:A1 I *D NOR4_X2
*I *398:B2 I *D OAI21_X1
*CAP
1 req[43] 6.43899e-05
2 *388:A 2.9304e-05
3 *310:A1 2.01086e-05
4 *398:B2 1.53272e-05
5 *270:28 5.79696e-05
6 *270:17 0.000199189
7 *270:13 0.00115952
8 *270:11 0.0010486
9 *270:11 *274:11 2.05033e-06
10 *270:13 *274:13 0.00149595
11 *270:13 *286:33 0
12 *270:13 *290:11 2.2287e-05
13 *270:13 *290:13 0.000230464
14 *270:13 *294:11 1.73151e-05
15 grant[10] *270:13 4.6613e-07
16 *310:A2 *310:A1 2.35328e-05
17 *310:A2 *398:B2 4.21607e-06
18 *312:A3 *270:17 1.31403e-05
19 *312:A4 *270:17 0.000157127
20 *360:C1 *270:13 0
21 *360:C2 *270:13 0
22 *382:A *310:A1 0
23 *388:C2 *388:A 0.000122284
24 *388:C2 *270:17 0.000288547
25 *388:C2 *270:28 4.18985e-05
26 *398:B1 *398:B2 4.68638e-06
27 *13:8 *398:B2 2.2822e-05
28 *164:12 *270:13 0.000655011
29 *242:11 *270:11 0.000143237
30 *244:13 *270:13 1.59582e-06
31 *246:13 *270:13 0
32 *246:21 *270:13 0
33 *248:21 *270:13 0
34 *263:53 *270:17 4.8358e-05
35 *264:9 *388:A 9.0173e-05
36 *264:9 *270:17 0.000275556
37 *264:9 *270:28 3.76506e-05
38 *264:13 *270:17 6.70982e-05
39 *265:41 *270:17 3.69346e-06
40 *266:11 *270:11 3.6039e-06
41 *268:57 *310:A1 0
42 *268:57 *388:A 2.52965e-06
*RES
1 req[43] *270:11 18.25 
2 *270:11 *270:13 163.75 
3 *270:13 *270:17 40.5357 
4 *270:17 *398:B2 12.25 
5 *270:17 *270:28 2.28572 
6 *270:28 *310:A1 12.75 
7 *270:28 *388:A 17.75 
*END

*D_NET *271 0.00560482
*CONN
*P req[44] I
*I *389:B1 I *D OAI21_X1
*I *309:A4 I *D NOR4_X2
*CAP
1 req[44] 4.73048e-05
2 *389:B1 5.01904e-05
3 *309:A4 4.62305e-06
4 *271:19 0.000198881
5 *271:13 0.00220508
6 *271:11 0.00210831
7 *309:A4 *309:A3 7.72792e-06
8 *309:A4 *380:A 7.19036e-06
9 *389:B1 *380:A 7.19036e-06
10 *389:B1 *273:25 9.57492e-07
11 *271:11 *280:11 0.000121324
12 grant[50] *271:11 4.48581e-06
13 grant[53] *271:11 4.48581e-06
14 *389:A *389:B1 0.000118825
15 *389:A *271:19 5.46453e-05
16 *390:B2 *389:B1 6.84316e-05
17 *499:A3 *271:13 2.96381e-05
18 *189:20 *271:13 4.281e-05
19 *199:14 *271:13 1.82188e-06
20 *237:11 *271:11 5.81799e-05
21 *264:9 *389:B1 1.35124e-05
22 *264:9 *271:19 7.62417e-05
23 *267:13 *271:13 0
24 *267:19 *389:B1 3.01743e-06
25 *267:19 *271:19 0.00036994
*RES
1 req[44] *271:11 17.6429 
2 *271:11 *271:13 69.93 
3 *271:13 *271:19 36.4643 
4 *271:19 *309:A4 5.75 
5 *271:19 *389:B1 24.0357 
*END

*D_NET *272 0.00559941
*CONN
*P req[45] I
*I *381:A I *D INV_X1
*I *309:A3 I *D NOR4_X2
*CAP
1 req[45] 0.00119823
2 *381:A 4.14158e-05
3 *309:A3 1.10084e-05
4 *272:13 0.000547566
5 *272:11 0.000742766
6 *272:5 0.00144585
7 *309:A3 *380:A 2.64848e-06
8 *381:A *380:A 5.90251e-06
9 *272:5 *279:5 0
10 *272:5 *284:5 0.000373112
11 grant[42] *272:5 2.60945e-06
12 grant[60] *272:5 0.000464605
13 *309:A4 *309:A3 7.72792e-06
14 *312:A3 *272:13 4.92317e-06
15 *384:B1 *272:13 2.82685e-05
16 *388:B1 *272:13 2.71569e-05
17 *249:5 *272:5 0
18 *263:53 *272:11 0.00019321
19 *263:53 *272:13 0.000119188
20 *264:9 *272:13 0
21 *267:19 *381:A 5.48953e-05
22 *267:19 *272:13 0.000328323
*RES
1 req[45] *272:5 167.036 
2 *272:5 *272:11 36.6964 
3 *272:11 *272:13 69.8036 
4 *272:13 *309:A3 11.25 
5 *272:13 *381:A 14.7143 
*END

*D_NET *273 0.00612885
*CONN
*P req[46] I
*I *397:A2 I *D NOR2_X1
*I *309:A2 I *D NOR4_X2
*I *380:A I *D INV_X1
*CAP
1 req[46] 0.000917193
2 *397:A2 0
3 *309:A2 0
4 *380:A 8.82837e-05
5 *273:25 0.000142808
6 *273:17 0.000333066
7 *273:9 0.000650736
8 *273:7 0.000372194
9 *273:5 0.000917193
10 *380:A *309:A1 2.39679e-06
11 *380:A *274:29 0
12 *273:5 *283:7 2.24769e-05
13 *273:5 *293:5 0.000165031
14 *273:9 *279:11 5.02771e-05
15 *273:9 *290:29 0.000917843
16 *273:17 *274:25 0
17 *273:25 *309:A1 2.52965e-06
18 grant[15] *273:5 0
19 *309:A3 *380:A 2.64848e-06
20 *309:A4 *380:A 7.19036e-06
21 *327:A2 *273:9 5.2303e-05
22 *328:A2 *273:9 8.74131e-05
23 *381:A *380:A 5.90251e-06
24 *389:B1 *380:A 7.19036e-06
25 *389:B1 *273:25 9.57492e-07
26 *390:B2 *273:17 7.16188e-07
27 *390:B2 *273:25 2.80025e-05
28 *420:B1 *273:17 0
29 *434:B2 *273:17 5.24777e-05
30 *2:14 *273:17 1.30565e-05
31 *2:27 *273:17 4.60007e-05
32 *12:14 *273:17 0
33 *12:14 *273:25 2.15252e-05
34 *90:12 *273:17 9.0109e-05
35 *90:12 *273:25 2.37093e-06
36 *119:18 *273:17 4.25407e-05
37 *241:13 *273:5 4.9829e-06
38 *248:9 *273:9 0.000134128
39 *248:21 *273:9 0.000407541
40 *253:5 *273:5 0.000121661
41 *253:9 *273:5 0.000358655
42 *253:13 *273:9 5.02771e-05
43 *263:11 *273:5 9.16951e-06
44 *268:49 *273:17 0
45 *268:49 *273:25 0
*RES
1 req[46] *273:5 128.036 
2 *273:5 *273:7 5 
3 *273:7 *273:9 74.8929 
4 *273:9 *273:17 41.1072 
5 *273:17 *273:25 7.53572 
6 *273:25 *380:A 14.8214 
7 *273:25 *309:A2 5 
8 *273:17 *397:A2 5 
*END

*D_NET *274 0.00616594
*CONN
*P req[47] I
*I *390:A I *D AOI21_X1
*I *397:A1 I *D NOR2_X1
*I *309:A1 I *D NOR4_X2
*CAP
1 req[47] 6.01872e-05
2 *390:A 0
3 *397:A1 2.94219e-05
4 *309:A1 2.78005e-05
5 *274:29 8.13203e-05
6 *274:25 0.000204636
7 *274:17 0.000519384
8 *274:15 0.000338846
9 *274:13 0.000810391
10 *274:11 0.000870579
11 *274:11 *278:5 6.26641e-06
12 *274:11 *286:15 5.73913e-06
13 *274:11 *286:17 1.74934e-05
14 *274:11 *290:11 1.52083e-06
15 *274:13 *278:21 0
16 *274:13 *282:21 9.91232e-06
17 *274:13 *286:33 0
18 *274:13 *290:25 0.00020331
19 *274:17 *284:9 0
20 *274:17 *286:37 0
21 *274:17 *286:50 0
22 *274:25 *299:A1 2.25089e-06
23 *274:25 *345:B2 8.99598e-06
24 *274:25 *393:B1 2.2822e-05
25 *274:25 *286:50 5.94167e-07
26 *314:A1 *274:17 0.000221992
27 *314:A3 *274:17 0.000221455
28 *322:A2 *274:17 1.08179e-05
29 *328:A2 *274:13 8.14743e-06
30 *332:A2 *274:13 4.89299e-05
31 *335:A *274:13 4.80408e-05
32 *345:B1 *274:25 8.99598e-06
33 *354:A *274:17 4.20906e-05
34 *371:A *274:13 8.99555e-06
35 *380:A *309:A1 2.39679e-06
36 *380:A *274:29 0
37 *390:B1 *309:A1 0
38 *390:B1 *274:29 3.14604e-06
39 *390:B2 *309:A1 2.51113e-05
40 *390:B2 *397:A1 8.90543e-06
41 *390:B2 *274:29 1.18589e-06
42 *396:B *274:25 0
43 *420:B2 *274:17 0.000170266
44 *421:A *274:25 1.11792e-06
45 *421:B *274:17 1.3252e-05
46 *421:C1 *274:17 2.3233e-05
47 *421:C1 *274:25 1.3143e-06
48 *2:14 *274:17 6.63045e-05
49 *2:14 *274:25 1.28334e-05
50 *90:12 *274:25 0
51 *90:12 *274:29 6.38328e-07
52 *119:18 *274:17 1.43544e-05
53 *170:10 *274:11 0.000105043
54 *179:18 *274:11 1.61249e-06
55 *220:12 *274:17 0
56 *244:9 *274:11 2.31472e-05
57 *244:13 *274:13 0.000176656
58 *251:21 *274:17 0.000164641
59 *264:9 *397:A1 4.70957e-06
60 *266:11 *274:11 4.60047e-06
61 *270:11 *274:11 2.05033e-06
62 *270:13 *274:13 0.00149595
63 *273:17 *274:25 0
64 *273:25 *309:A1 2.52965e-06
*RES
1 req[47] *274:11 19.2143 
2 *274:11 *274:13 139.25 
3 *274:13 *274:15 5 
4 *274:15 *274:17 55.4643 
5 *274:17 *274:25 25.6786 
6 *274:25 *274:29 3.21429 
7 *274:29 *309:A1 8.39286 
8 *274:29 *397:A1 18.7143 
9 *274:25 *390:A 5 
*END

*D_NET *275 0.00414113
*CONN
*P req[48] I
*I *306:A2 I *D NOR4_X4
*CAP
1 req[48] 2.25733e-05
2 *306:A2 9.78022e-05
3 *275:29 0.000539425
4 *275:27 0.000625875
5 *275:13 0.00042132
6 *275:11 0.000259641
7 *306:A2 *305:A2 7.16188e-07
8 *306:A2 *306:A1 4.1874e-05
9 *306:A2 *349:B2 7.72537e-06
10 *306:A2 *276:17 1.2203e-05
11 *275:13 *277:7 0.000469046
12 *275:27 *277:23 2.38892e-05
13 *275:29 *287:21 0
14 grant[37] *275:11 2.05033e-06
15 grant[40] *275:11 4.24402e-05
16 index[2] *275:11 2.05033e-06
17 index[2] *275:13 0.000529786
18 index[2] *275:27 2.52965e-06
19 *493:A1 *275:29 1.32279e-05
20 *493:A2 *275:29 8.96548e-05
21 *510:A2 *275:29 4.80114e-06
22 *510:A3 *275:29 6.89714e-06
23 *525:A1 *275:27 1.96107e-05
24 *529:A1 *275:29 7.19036e-06
25 *9:10 *306:A2 0.000183617
26 *11:6 *275:29 2.45893e-05
27 *51:10 *275:29 8.56027e-06
28 *140:10 *275:27 9.04583e-05
29 *152:12 *275:27 1.19839e-05
30 *152:12 *275:29 8.24917e-06
31 *160:14 *275:27 4.2963e-06
32 *160:14 *275:29 7.85466e-05
33 *160:23 *275:27 0.000219636
34 *180:12 *275:27 9.84947e-05
35 *187:38 *275:13 9.01846e-07
36 *188:18 *275:13 8.43215e-07
37 *188:18 *275:27 2.27917e-05
38 *188:26 *275:13 4.84e-05
39 *200:10 *275:29 0
40 *215:8 *275:27 6.48216e-07
41 *216:16 *275:29 3.20449e-05
42 *216:18 *275:29 3.27779e-05
43 *221:16 *275:29 7.19036e-06
44 *239:15 *275:27 2.47678e-05
45 *248:9 *306:A2 0
*RES
1 req[48] *275:11 12.8214 
2 *275:11 *275:13 49.75 
3 *275:13 *275:27 40.3572 
4 *275:27 *275:29 53.25 
5 *275:29 *306:A2 28.8929 
*END

*D_NET *276 0.00368535
*CONN
*P req[49] I
*I *349:B2 I *D AOI21_X1
*I *306:A1 I *D NOR4_X4
*CAP
1 req[49] 0.000203178
2 *349:B2 5.95055e-05
3 *306:A1 2.63546e-05
4 *276:17 0.00033828
5 *276:13 0.00117725
6 *276:11 0.00112801
7 *306:A1 *289:57 4.78054e-06
8 *349:B2 *305:A1 9.64777e-06
9 *349:B2 *305:A2 6.38328e-07
10 *349:B2 *349:A 1.39839e-06
11 *349:B2 *289:57 0
12 *276:11 *281:5 1.42277e-05
13 *276:11 *289:15 1.52083e-06
14 *276:13 valid 0
15 *276:17 *305:A1 2.08098e-06
16 *276:17 *305:A2 4.93877e-05
17 index[4] *276:13 0
18 *306:A2 *306:A1 4.1874e-05
19 *306:A2 *349:B2 7.72537e-06
20 *306:A2 *276:17 1.2203e-05
21 *240:5 *276:13 0.000593055
22 *248:9 *276:17 0
23 *264:5 *276:11 1.42277e-05
*RES
1 req[49] *276:11 29.5714 
2 *276:11 *276:13 122.75 
3 *276:13 *276:17 33.75 
4 *276:17 *306:A1 13.5357 
5 *276:17 *349:B2 16.75 
*END

*D_NET *277 0.00485984
*CONN
*P req[4] I
*I *370:A4 I *D NOR4_X1
*I *334:A4 I *D OR4_X1
*CAP
1 req[4] 0.000242512
2 *370:A4 0
3 *334:A4 4.2247e-05
4 *277:55 0.000104278
5 *277:49 0.000311206
6 *277:33 0.000518246
7 *277:29 0.000302814
8 *277:23 0.000270885
9 *277:7 0.000479653
10 *334:A4 *370:A3 7.82575e-05
11 *334:A4 *293:28 1.61489e-05
12 *277:49 *288:15 6.82943e-05
13 *277:49 *288:21 2.16146e-05
14 *277:49 *290:23 2.15711e-05
15 *277:55 *370:A3 1.42548e-05
16 *277:55 *293:28 4.45767e-06
17 *277:55 *294:27 2.94435e-05
18 grant[32] *277:7 5.81153e-06
19 index[2] *277:7 1.3917e-06
20 index[2] *277:23 0.000214131
21 index[2] *277:29 2.16072e-06
22 *338:A2 *277:49 1.76147e-05
23 *372:A *277:49 6.81033e-07
24 *372:B2 *277:49 6.64921e-06
25 *373:C2 *277:49 5.59811e-06
26 *373:C2 *277:55 1.20936e-06
27 *410:C2 *277:49 0.000138924
28 *439:B1 *277:49 0.000162891
29 *448:A1 *277:33 6.88366e-06
30 *466:A3 *277:33 7.48003e-06
31 *38:12 *277:49 5.75004e-07
32 *121:36 *277:33 7.0096e-06
33 *121:47 *277:33 1.14417e-05
34 *142:18 *277:23 1.90208e-06
35 *143:41 *277:29 1.87637e-06
36 *152:8 *277:33 1.77822e-05
37 *173:28 *277:49 3.27172e-05
38 *173:28 *277:55 2.08098e-06
39 *187:30 *277:23 2.47043e-05
40 *187:30 *277:29 3.16958e-05
41 *187:30 *277:33 1.72405e-05
42 *187:38 *277:7 0.000189156
43 *188:18 *277:23 4.85352e-05
44 *196:14 *277:33 0.000109575
45 *196:14 *277:49 3.11725e-05
46 *197:16 *277:23 0
47 *198:10 *277:23 3.02372e-05
48 *209:24 *334:A4 2.29518e-05
49 *213:10 *277:33 5.41175e-06
50 *215:10 *334:A4 6.88366e-06
51 *215:10 *277:23 2.96955e-05
52 *215:10 *277:49 0
53 *215:10 *277:55 1.15464e-05
54 *224:14 *277:33 6.94703e-06
55 *226:8 *277:33 3.20708e-05
56 *226:14 *277:33 0.000135551
57 *226:14 *277:49 0.0001747
58 *229:70 *277:33 9.88445e-05
59 *229:118 *277:33 5.4443e-05
60 *239:15 *277:23 1.55485e-05
61 *246:11 *277:49 0
62 *246:11 *277:55 1.54255e-05
63 *246:13 *277:49 2.26437e-05
64 *250:19 *277:49 1.52083e-06
65 *250:19 *277:55 7.77137e-05
66 *267:13 *277:23 0
67 *275:13 *277:7 0.000469046
68 *275:27 *277:23 2.38892e-05
*RES
1 req[4] *277:7 49.0357 
2 *277:7 *277:23 45.9357 
3 *277:23 *277:29 13.75 
4 *277:29 *277:33 42.0536 
5 *277:33 *277:49 48.4822 
6 *277:49 *277:55 9.64286 
7 *277:55 *334:A4 16.3571 
8 *277:55 *370:A4 10 
*END

*D_NET *278 0.00668715
*CONN
*P req[50] I
*I *305:A2 I *D OR2_X2
*I *348:A I *D INV_X1
*CAP
1 req[50] 0.000369401
2 *305:A2 5.77574e-05
3 *348:A 1.41222e-05
4 *278:35 7.18796e-05
5 *278:33 0.000301334
6 *278:31 0.000379886
7 *278:21 0.000442443
8 *278:19 0.000463552
9 *278:5 0.000469061
10 *305:A2 *305:A1 0.000156206
11 *348:A *305:A1 1.19839e-05
12 *348:A *349:A 7.19036e-06
13 *278:5 *282:5 0.000325633
14 *278:5 *286:17 0.000739242
15 *278:19 *286:31 0.000120262
16 *278:19 *288:21 6.48738e-06
17 *278:21 *282:21 9.00315e-05
18 *278:21 *286:33 0.000117455
19 *278:21 *290:25 2.87248e-06
20 *306:A2 *305:A2 7.16188e-07
21 *306:A3 *305:A2 1.80853e-05
22 *306:A3 *348:A 6.65423e-06
23 *327:A2 *278:31 0.000100694
24 *329:A2 *278:21 3.09143e-06
25 *335:A *278:21 1.21774e-06
26 *338:A3 *278:21 2.2287e-05
27 *349:B2 *305:A2 6.38328e-07
28 *415:A2 *278:21 3.00419e-05
29 *416:B2 *278:21 3.3125e-05
30 *30:10 *278:21 0.00013988
31 *173:14 *278:19 1.82645e-06
32 *209:10 *278:19 7.06488e-06
33 *215:10 *278:19 6.94703e-06
34 *240:9 *278:31 3.29166e-05
35 *240:9 *278:33 0.001346
36 *248:9 *305:A2 7.54346e-07
37 *248:9 *278:31 4.7875e-06
38 *248:9 *278:33 0.000507635
39 *248:21 *278:31 0.000219849
40 *262:13 *278:19 4.83815e-07
41 *274:11 *278:5 6.26641e-06
42 *274:13 *278:21 0
43 *276:17 *305:A2 4.93877e-05
*RES
1 req[50] *278:5 70.0357 
2 *278:5 *278:19 24.1457 
3 *278:19 *278:21 51.75 
4 *278:21 *278:31 20.3929 
5 *278:31 *278:33 71.5 
6 *278:33 *278:35 5 
7 *278:35 *348:A 6.75 
8 *278:35 *305:A2 26.2857 
*END

*D_NET *279 0.00705386
*CONN
*P req[51] I
*I *305:A1 I *D OR2_X2
*I *349:A I *D AOI21_X1
*CAP
1 req[51] 0.000896404
2 *305:A1 7.98537e-05
3 *349:A 5.97513e-06
4 *279:15 8.58289e-05
5 *279:13 0.000513926
6 *279:11 0.00079088
7 *279:5 0.00117336
8 grant[16] *279:5 1.90987e-05
9 grant[38] *279:5 0.000133096
10 grant[60] *279:5 0
11 *305:A2 *305:A1 0.000156206
12 *306:A4 *305:A1 2.52965e-06
13 *327:A1 *279:11 3.11308e-06
14 *327:A2 *279:11 0.000162495
15 *327:A2 *279:13 4.33833e-05
16 *348:A *305:A1 1.19839e-05
17 *348:A *349:A 7.19036e-06
18 *349:B1 *279:13 1.72405e-05
19 *349:B2 *305:A1 9.64777e-06
20 *349:B2 *349:A 1.39839e-06
21 *361:A *279:13 0
22 *403:A *279:13 4.12796e-06
23 *406:C2 *279:11 1.46241e-05
24 *417:B2 *279:13 0.000143777
25 *427:B1 *279:13 0.000271602
26 *9:16 *279:13 0.000171595
27 *25:8 *279:13 0
28 *27:10 *279:11 1.19108e-06
29 *27:30 *279:11 2.38217e-06
30 *27:30 *279:13 0.000101692
31 *28:10 *279:11 1.08366e-05
32 *124:12 *279:13 0
33 *240:9 *279:13 0.00147835
34 *243:9 *279:13 0
35 *243:13 *279:13 0
36 *248:9 *305:A1 2.08824e-05
37 *248:21 *279:11 7.94852e-06
38 *248:29 *279:11 7.67471e-06
39 *249:5 *279:5 0.000627419
40 *259:9 *305:A1 6.48216e-07
41 *263:45 *279:11 2.31472e-05
42 *272:5 *279:5 0
43 *273:9 *279:11 5.02771e-05
44 *276:17 *305:A1 2.08098e-06
*RES
1 req[51] *279:5 129.536 
2 *279:5 *279:11 41.7143 
3 *279:11 *279:13 91.5715 
4 *279:13 *279:15 5 
5 *279:15 *349:A 5.75 
6 *279:15 *305:A1 27.5357 
*END

*D_NET *280 0.00512249
*CONN
*P req[52] I
*I *303:A2 I *D NOR2_X4
*CAP
1 req[52] 9.16401e-06
2 *303:A2 0
3 *280:17 0.000467881
4 *280:15 0.000495696
5 *280:13 0.000574042
6 *280:11 0.000784558
7 *280:7 0.000247495
8 *280:11 *287:11 0.00011518
9 *280:11 *289:15 0.000220899
10 *280:11 *291:11 1.90192e-05
11 *280:17 *302:A 1.28122e-06
12 *280:17 *303:A1 1.52688e-05
13 *280:17 *283:32 1.39839e-06
14 *280:17 *291:13 0
15 *280:17 *291:23 0
16 grant[20] *280:7 7.48041e-06
17 grant[22] *280:7 6.9213e-06
18 grant[26] *280:11 6.94703e-06
19 grant[28] *280:11 1.77293e-05
20 grant[40] *280:11 0.000285047
21 grant[59] *280:13 3.30047e-06
22 grant[59] *280:17 0
23 grant[62] *280:13 0.000265691
24 *304:A3 *280:17 6.48216e-07
25 *347:B1 *280:17 8.0019e-06
26 *6:6 *280:17 4.32144e-07
27 *193:20 *280:11 0.00033048
28 *237:11 *280:11 3.05899e-05
29 *255:9 *280:11 3.22236e-05
30 *257:5 *280:13 0.0010538
31 *259:15 *280:17 0
32 *271:11 *280:11 0.000121324
*RES
1 req[52] *280:7 6.53572 
2 *280:7 *280:11 49.3572 
3 *280:11 *280:13 97.75 
4 *280:13 *280:15 2.96429 
5 *280:15 *280:17 48.75 
6 *280:17 *303:A2 5 
*END

*D_NET *281 0.00392395
*CONN
*P req[53] I
*I *347:B2 I *D AOI21_X1
*I *303:A1 I *D NOR2_X4
*CAP
1 req[53] 0.000935523
2 *347:B2 0
3 *303:A1 7.35649e-05
4 *281:13 0.000346909
5 *281:5 0.00120887
6 *303:A1 *291:23 7.09627e-05
7 *303:A1 *292:9 0
8 *281:5 *296:5 0.000410465
9 *281:13 *283:32 4.32144e-07
10 *281:13 *291:23 1.49183e-05
11 *304:A1 *303:A1 4.48548e-05
12 *347:B1 *303:A1 3.65322e-06
13 *350:A *303:A1 1.25189e-05
14 *350:A *281:13 2.39679e-06
15 *394:C1 *303:A1 4.26902e-05
16 *5:10 *303:A1 4.12796e-06
17 *6:6 *303:A1 3.01852e-05
18 *240:9 *281:13 0
19 *243:9 *281:13 0.000353772
20 *245:9 *281:13 5.39412e-06
21 *252:9 *281:13 0
22 *259:15 *303:A1 0
23 *264:5 *281:5 0.000333221
24 *276:11 *281:5 1.42277e-05
25 *280:17 *303:A1 1.52688e-05
*RES
1 req[53] *281:5 135.036 
2 *281:5 *281:13 45.25 
3 *281:13 *303:A1 27.9643 
4 *281:13 *347:B2 5 
*END

*D_NET *282 0.00772327
*CONN
*P req[54] I
*I *302:A I *D INV_X1
*I *394:B I *D AOI211_X1
*CAP
1 req[54] 0.00037158
2 *302:A 8.67111e-05
3 *394:B 8.6344e-06
4 *282:29 0.000113773
5 *282:25 0.000409807
6 *282:23 0.000391379
7 *282:21 0.000292142
8 *282:17 0.00051286
9 *282:5 0.000592298
10 *394:B *394:A 1.25189e-05
11 *282:5 *286:15 3.34676e-06
12 *282:5 *290:11 3.23723e-07
13 *282:17 *290:23 8.8002e-05
14 *282:21 *286:33 0
15 *282:21 *290:25 0.000145496
16 *282:29 *394:A 2.85098e-05
17 *300:A1 *282:25 2.94435e-05
18 *328:A2 *282:21 5.31885e-05
19 *332:A1 *282:21 1.32348e-05
20 *394:C1 *302:A 1.02321e-05
21 *394:C1 *394:B 2.75346e-06
22 *394:C2 *394:B 1.1519e-06
23 *394:C2 *282:29 3.73618e-06
24 *411:C1 *282:17 1.69579e-05
25 *415:A1 *282:17 7.18184e-06
26 *416:B2 *282:21 2.7613e-05
27 *2:27 *282:25 4.74992e-05
28 *5:10 *302:A 3.94694e-05
29 *7:10 *302:A 2.89018e-05
30 *30:10 *282:21 0.000151251
31 *33:25 *282:17 9.09058e-06
32 *93:10 *394:B 1.21774e-06
33 *93:10 *282:29 1.87369e-06
34 *164:12 *282:17 0.00025249
35 *215:10 *282:17 9.20459e-05
36 *220:10 *282:25 5.48932e-05
37 *220:12 *282:25 0.00131989
38 *235:21 *282:17 9.12521e-05
39 *244:13 *282:5 0.000734448
40 *245:9 *282:25 0.000148867
41 *245:13 *282:25 0.000896855
42 *246:13 *282:17 2.74308e-05
43 *252:9 *302:A 3.76049e-05
44 *252:9 *282:25 0.000138457
45 *274:13 *282:21 9.91232e-06
46 *278:5 *282:5 0.000325633
47 *278:21 *282:21 9.00315e-05
48 *280:17 *302:A 1.28122e-06
*RES
1 req[54] *282:5 70.0357 
2 *282:5 *282:17 49.25 
3 *282:17 *282:21 49.75 
4 *282:21 *282:23 5 
5 *282:23 *282:25 92.5358 
6 *282:25 *282:29 7.75 
7 *282:29 *394:B 6.25 
8 *282:29 *302:A 26.6786 
*END

*D_NET *283 0.00666168
*CONN
*P req[55] I
*I *301:A I *D INV_X1
*I *347:A I *D AOI21_X1
*I *394:A I *D AOI211_X1
*CAP
1 req[55] 3.22636e-05
2 *301:A 8.71307e-06
3 *347:A 0
4 *394:A 4.75772e-05
5 *283:32 3.54997e-05
6 *283:15 7.43638e-05
7 *283:13 0.00152921
8 *283:11 0.00152921
9 *283:9 0.00105948
10 *283:7 0.00109174
11 *283:7 *293:5 2.3036e-05
12 *283:9 *289:15 1.52618e-05
13 grant[23] *283:9 0.000331832
14 grant[46] *283:9 2.3767e-06
15 *347:B1 *283:32 2.75346e-06
16 *350:A *394:A 1.45069e-05
17 *350:A *283:32 5.17976e-05
18 *394:B *394:A 1.25189e-05
19 *394:C2 *394:A 3.51992e-06
20 *7:10 *394:A 1.25215e-05
21 *170:10 *283:9 0.00058592
22 *199:14 *283:13 0
23 *243:9 *394:A 1.37959e-05
24 *243:9 *283:32 8.13967e-05
25 *245:9 *283:32 8.93174e-06
26 *255:9 *283:9 1.92691e-05
27 *259:15 *394:A 2.13613e-05
28 *273:5 *283:7 2.24769e-05
29 *280:17 *283:32 1.39839e-06
30 *281:13 *283:32 4.32144e-07
31 *282:29 *394:A 2.85098e-05
*RES
1 req[55] *283:7 10.0357 
2 *283:7 *283:9 122.25 
3 *283:9 *283:11 5 
4 *283:11 *283:13 55.23 
5 *283:13 *283:15 5 
6 *283:15 *394:A 17.0357 
7 *283:15 *283:32 10.2143 
8 *283:32 *347:A 5 
9 *283:32 *301:A 5.92857 
*END

*D_NET *284 0.004903
*CONN
*P req[56] I
*I *299:A4 I *D NOR4_X2
*CAP
1 req[56] 0.00103904
2 *299:A4 4.68648e-06
3 *284:9 0.000885746
4 *284:7 0.00088106
5 *284:5 0.00103904
6 *299:A4 *345:B2 1.68643e-06
7 *299:A4 *393:B1 1.68643e-06
8 *284:9 *393:B1 3.02372e-05
9 *284:9 *286:37 0.000169683
10 *284:9 *286:50 1.90574e-06
11 grant[42] *284:5 2.60945e-06
12 index[1] *284:5 0.000401469
13 *419:A2 *284:9 4.11266e-05
14 *421:A *284:9 2.99163e-05
15 *259:17 *284:9 0
16 *272:5 *284:5 0.000373112
17 *274:17 *284:9 0
*RES
1 req[56] *284:5 147.536 
2 *284:5 *284:7 5 
3 *284:7 *284:9 104.071 
4 *284:9 *299:A4 10.5 
*END

*D_NET *285 0.00523003
*CONN
*P req[57] I
*I *299:A3 I *D NOR4_X2
*I *345:B2 I *D AOI21_X1
*CAP
1 req[57] 0.000880838
2 *299:A3 0
3 *345:B2 5.58893e-05
4 *285:11 5.58893e-05
5 *285:9 0.000373111
6 *285:7 0.000373111
7 *285:5 0.000880838
8 *345:B2 *345:A 2.63082e-05
9 *345:B2 *393:B1 9.62051e-07
10 *285:5 *292:5 0.000153212
11 *285:9 *342:A 3.02296e-05
12 *285:9 *343:A4 8.56664e-06
13 *285:9 *393:B1 2.00032e-05
14 *285:9 *289:57 2.60713e-06
15 *285:9 *291:33 6.64238e-05
16 *285:9 *292:9 0.000845315
17 *285:9 *292:37 1.26946e-05
18 *299:A4 *345:B2 1.68643e-06
19 *346:B2 *285:9 0
20 *395:A2 *345:B2 0
21 *421:A *285:9 0.000260189
22 *1:12 *285:9 0
23 *43:8 *285:9 8.71256e-05
24 *94:14 *345:B2 0
25 *252:5 *285:5 0.000674633
26 *259:17 *285:9 0
27 *261:5 *285:5 0.000411405
28 *274:25 *345:B2 8.99598e-06
*RES
1 req[57] *285:5 147.036 
2 *285:5 *285:7 5 
3 *285:7 *285:9 64.7143 
4 *285:9 *285:11 5 
5 *285:11 *345:B2 12.1071 
6 *285:11 *299:A3 5 
*END

*D_NET *286 0.00530872
*CONN
*P req[58] I
*I *299:A2 I *D NOR4_X2
*I *393:B1 I *D OAI21_X1
*I *344:A I *D INV_X1
*CAP
1 req[58] 4.5325e-05
2 *299:A2 0
3 *393:B1 7.14869e-05
4 *344:A 4.08115e-06
5 *286:50 9.82079e-05
6 *286:37 0.000388595
7 *286:35 0.000357793
8 *286:33 0.000538739
9 *286:31 0.000619647
10 *286:17 0.000471552
11 *286:15 0.000435969
12 *393:B1 *299:A1 7.19036e-06
13 *393:B1 *345:A 2.30024e-06
14 *393:B1 *287:44 8.43215e-07
15 *286:15 *290:11 1.85196e-05
16 *286:31 *288:21 2.01644e-05
17 *299:A4 *393:B1 1.68643e-06
18 *314:A3 *286:37 1.22418e-05
19 *329:A2 *286:33 7.19036e-06
20 *333:A *286:33 7.56361e-06
21 *338:A3 *286:33 8.90513e-06
22 *339:A2 *286:33 0
23 *339:A3 *286:33 7.03073e-06
24 *339:A4 *286:33 0
25 *345:B2 *393:B1 9.62051e-07
26 *346:B2 *393:B1 3.81615e-06
27 *354:A *286:33 5.49744e-05
28 *355:B1 *286:33 6.56007e-06
29 *407:B2 *286:33 0.00011163
30 *412:A *286:33 2.35127e-05
31 *412:C2 *286:33 8.49944e-06
32 *416:A *286:33 1.62087e-05
33 *416:B1 *286:33 6.82202e-07
34 *418:B1 *286:33 3.09411e-06
35 *419:A2 *286:37 0.000107416
36 *420:B2 *286:37 9.38394e-06
37 *421:A *344:A 7.72537e-06
38 *421:A *393:B1 4.62745e-06
39 *421:A *286:50 5.48932e-05
40 *425:A *286:33 1.29822e-05
41 *425:B1 *286:33 1.91498e-06
42 *425:B2 *286:33 0
43 *1:12 *393:B1 1.74934e-05
44 *2:14 *286:37 5.20238e-07
45 *2:14 *286:50 1.39294e-06
46 *30:10 *286:33 9.57492e-07
47 *90:12 *344:A 7.72537e-06
48 *112:12 *286:33 4.11282e-05
49 *119:18 *286:37 1.0968e-05
50 *179:18 *286:15 8.00929e-05
51 *209:10 *286:31 2.13441e-05
52 *215:10 *286:31 1.20583e-05
53 *233:21 *286:31 1.76942e-05
54 *244:9 *286:15 5.41015e-05
55 *244:13 *286:17 3.19164e-07
56 *244:26 *286:17 2.75346e-06
57 *246:11 *286:31 1.2631e-05
58 *259:17 *393:B1 0
59 *262:13 *286:31 9.1073e-06
60 *266:11 *286:17 1.5329e-05
61 *266:15 *286:17 0.000107985
62 *266:17 *286:17 9.24244e-05
63 *270:13 *286:33 0
64 *274:11 *286:15 5.73913e-06
65 *274:11 *286:17 1.74934e-05
66 *274:13 *286:33 0
67 *274:17 *286:37 0
68 *274:17 *286:50 0
69 *274:25 *393:B1 2.2822e-05
70 *274:25 *286:50 5.94167e-07
71 *278:5 *286:17 0.000739242
72 *278:19 *286:31 0.000120262
73 *278:21 *286:33 0.000117455
74 *282:5 *286:15 3.34676e-06
75 *282:21 *286:33 0
76 *284:9 *393:B1 3.02372e-05
77 *284:9 *286:37 0.000169683
78 *284:9 *286:50 1.90574e-06
79 *285:9 *393:B1 2.00032e-05
*RES
1 req[58] *286:15 17.5357 
2 *286:15 *286:17 69.25 
3 *286:17 *286:31 24.7971 
4 *286:31 *286:33 68.75 
5 *286:33 *286:35 5 
6 *286:35 *286:37 47.0714 
7 *286:37 *344:A 10.75 
8 *286:37 *286:50 8.64286 
9 *286:50 *393:B1 24.6786 
10 *286:50 *299:A2 5 
*END

*D_NET *287 0.0052216
*CONN
*P req[59] I
*I *393:B2 I *D OAI21_X1
*I *345:A I *D AOI21_X1
*I *299:A1 I *D NOR4_X2
*CAP
1 req[59] 4.70114e-05
2 *393:B2 0
3 *345:A 5.44495e-05
4 *299:A1 3.54841e-05
5 *287:44 6.1524e-05
6 *287:29 0.000211698
7 *287:21 0.000740448
8 *287:19 0.000628972
9 *287:13 0.000384973
10 *287:11 0.000374322
11 *287:11 *289:15 7.77247e-05
12 *287:13 *289:33 0.000274446
13 *287:19 *289:47 7.92767e-05
14 *287:21 *289:51 0
15 *287:21 *289:57 0
16 *287:21 *290:33 0
17 *287:29 *343:A4 5.3396e-05
18 *287:29 *289:57 2.49071e-05
19 *287:29 *290:33 0
20 *287:29 *291:23 2.96955e-05
21 *287:29 *291:25 1.68643e-06
22 grant[43] *287:11 8.42314e-06
23 grant[46] *287:11 1.10866e-05
24 grant[4] *287:13 0.000239723
25 grant[50] *287:13 0.000506719
26 *341:A2 *287:29 0
27 *345:B2 *345:A 2.63082e-05
28 *346:A *287:29 5.54348e-05
29 *393:B1 *299:A1 7.19036e-06
30 *393:B1 *345:A 2.30024e-06
31 *393:B1 *287:44 8.43215e-07
32 *396:A *299:A1 3.7299e-06
33 *396:A *287:29 1.45042e-05
34 *396:B *287:44 2.39679e-06
35 *421:A *299:A1 2.51151e-05
36 *421:A *287:29 7.15405e-05
37 *471:A3 *287:21 1.32279e-05
38 *493:A1 *287:21 0
39 *510:A2 *287:21 1.28122e-06
40 *510:A3 *287:21 0
41 *1:12 *345:A 6.06412e-06
42 *1:25 *287:44 1.65202e-06
43 *41:10 *287:29 3.26764e-05
44 *43:8 *287:29 1.49936e-05
45 *94:14 *345:A 0
46 *128:19 *287:19 2.32887e-05
47 *128:30 *287:19 1.88334e-06
48 *165:8 *287:21 2.55787e-06
49 *184:16 *287:13 1.68643e-06
50 *186:16 *287:21 1.2744e-05
51 *198:10 *287:19 0.000103038
52 *200:10 *287:21 0.00014777
53 *202:12 *287:13 1.28122e-06
54 *220:10 *287:21 0
55 *237:13 *287:13 0.000104971
56 *237:23 *287:13 0.000215323
57 *237:27 *287:21 0.000358372
58 *255:9 *287:11 6.03486e-06
59 *274:25 *299:A1 2.25089e-06
60 *275:29 *287:21 0
61 *280:11 *287:11 0.00011518
*RES
1 req[59] *287:11 18.3929 
2 *287:11 *287:13 69.25 
3 *287:13 *287:19 19.0714 
4 *287:19 *287:21 70.75 
5 *287:21 *287:29 29.4286 
6 *287:29 *299:A1 14.8929 
7 *287:29 *287:44 6.25 
8 *287:44 *345:A 11.6786 
9 *287:44 *393:B2 5 
*END

*D_NET *288 0.0045809
*CONN
*P req[5] I
*I *437:B2 I *D AOI21_X1
*I *370:A3 I *D NOR4_X1
*I *373:B2 I *D AOI221_X1
*I *334:A3 I *D OR4_X1
*CAP
1 req[5] 1.07821e-05
2 *437:B2 3.52967e-05
3 *370:A3 3.13355e-05
4 *373:B2 0
5 *334:A3 4.34538e-05
6 *288:43 7.03936e-05
7 *288:36 2.82728e-05
8 *288:21 0.000209691
9 *288:15 0.000261989
10 *288:9 0.000519058
11 *288:7 0.000409577
12 *334:A3 *334:A1 1.86174e-05
13 *334:A3 *293:28 3.28042e-05
14 *370:A3 *370:A2 2.75346e-06
15 *437:B2 *373:A 1.68638e-05
16 *288:21 *334:A1 9.71023e-05
17 *288:21 *293:28 3.62561e-06
18 *288:21 *294:27 5.33077e-05
19 grant[34] *288:7 1.3917e-06
20 grant[41] *288:7 1.3917e-06
21 grant[41] *288:9 0.000762136
22 grant[51] *437:B2 5.36451e-05
23 grant[51] *288:36 7.19036e-06
24 grant[51] *288:43 5.33113e-06
25 *334:A4 *370:A3 7.82575e-05
26 *338:A2 *288:21 1.89985e-05
27 *339:A1 *288:15 0.000179174
28 *373:B1 *437:B2 7.72792e-06
29 *373:B1 *288:36 2.39679e-06
30 *373:B1 *288:43 7.19036e-06
31 *373:C1 *370:A3 8.43215e-07
32 *373:C2 *288:36 1.89851e-06
33 *375:B1 *288:36 1.20897e-05
34 *410:C2 *288:21 0.000276866
35 *437:B1 *370:A3 2.94455e-05
36 *439:A *370:A3 4.32144e-07
37 *439:B1 *288:21 6.03486e-06
38 *22:16 *288:15 5.38494e-05
39 *36:8 *288:36 2.35379e-05
40 *69:12 *437:B2 9.76549e-06
41 *145:18 *288:15 5.46453e-05
42 *149:12 *288:15 1.43544e-05
43 *149:14 *288:15 9.24246e-06
44 *162:16 *288:9 6.48216e-07
45 *162:27 *288:9 5.43947e-06
46 *173:28 *370:A3 1.87369e-06
47 *190:24 *288:7 2.75346e-06
48 *190:24 *288:9 0.000190462
49 *204:18 *334:A3 4.87096e-06
50 *204:18 *288:36 2.71691e-06
51 *209:10 *288:15 1.77747e-05
52 *209:10 *288:21 8.93815e-05
53 *209:24 *334:A3 2.90448e-05
54 *215:10 *370:A3 2.2921e-05
55 *226:14 *288:15 0.000258407
56 *269:13 *288:9 0.000361031
57 *277:49 *288:15 6.82943e-05
58 *277:49 *288:21 2.16146e-05
59 *277:55 *370:A3 1.42548e-05
60 *278:19 *288:21 6.48738e-06
61 *286:31 *288:21 2.01644e-05
*RES
1 req[5] *288:7 1.46429 
2 *288:7 *288:9 75.75 
3 *288:9 *288:15 29.5714 
4 *288:15 *288:21 25.3214 
5 *288:21 *334:A3 16.7143 
6 *288:21 *288:36 8.75 
7 *288:36 *373:B2 5 
8 *288:36 *288:43 0.75 
9 *288:43 *370:A3 20.75 
10 *288:43 *437:B2 11.1786 
*END

*D_NET *289 0.00527556
*CONN
*P req[60] I
*I *298:A4 I *D NOR4_X2
*I *343:A4 I *D OR4_X1
*CAP
1 req[60] 0.000294128
2 *298:A4 4.38145e-05
3 *343:A4 2.24685e-05
4 *289:57 0.000311872
5 *289:51 0.000555142
6 *289:47 0.00046072
7 *289:33 0.000328061
8 *289:19 0.000497095
9 *289:15 0.000614329
10 *298:A4 *298:A3 1.21774e-06
11 *298:A4 *291:25 7.72537e-06
12 *298:A4 *291:33 1.25215e-05
13 *298:A4 *292:13 1.56342e-05
14 *298:A4 *292:17 3.70266e-05
15 *343:A4 *298:A3 2.39679e-06
16 *343:A4 *290:39 7.72792e-06
17 *343:A4 *291:25 4.32144e-07
18 *343:A4 *291:33 2.16072e-07
19 *289:15 *291:11 2.72417e-06
20 *289:57 *291:23 1.97744e-05
21 *289:57 *292:9 5.62265e-05
22 grant[43] *289:19 0
23 grant[46] *289:15 2.8119e-05
24 grant[46] *289:19 7.72792e-06
25 index[4] *289:15 0
26 *306:A1 *289:57 4.78054e-06
27 *349:B2 *289:57 0
28 *350:B1 *289:57 0
29 *350:B2 *289:57 1.03067e-05
30 *467:A3 *289:47 1.24387e-05
31 *492:A2 *289:51 1.0236e-05
32 *495:A2 *289:47 3.36575e-05
33 *495:A2 *289:51 3.46864e-06
34 *508:A1 *289:47 5.86221e-05
35 *43:8 *343:A4 2.87401e-05
36 *128:30 *289:47 2.3767e-06
37 *151:18 *289:47 2.57689e-05
38 *151:101 *289:47 8.64288e-07
39 *159:23 *289:51 6.46697e-06
40 *159:30 *289:51 2.32377e-05
41 *159:32 *289:51 4.42234e-05
42 *159:34 *289:47 1.76665e-06
43 *161:114 *289:47 4.27236e-05
44 *161:118 *289:47 1.48039e-05
45 *161:118 *289:51 0.000181625
46 *163:12 *289:33 9.77674e-06
47 *165:8 *289:51 1.51125e-05
48 *168:18 *289:47 4.32144e-07
49 *168:22 *289:19 4.48497e-05
50 *168:22 *289:47 1.49183e-05
51 *170:6 *289:19 0
52 *184:16 *289:33 0.000159963
53 *198:8 *289:47 3.73811e-05
54 *202:8 *289:33 0
55 *202:12 *289:33 4.69529e-06
56 *203:20 *289:19 0.000134444
57 *205:12 *289:33 4.42996e-06
58 *206:10 *289:19 0.000142731
59 *208:10 *289:33 1.1144e-06
60 *231:98 *289:33 7.15244e-06
61 *233:15 *289:15 8.04661e-07
62 *236:11 *289:15 4.80074e-06
63 *237:13 *289:33 5.03566e-05
64 *239:15 *289:33 2.94435e-05
65 *240:5 *289:15 9.35678e-06
66 *255:7 *289:19 1.19839e-05
67 *276:11 *289:15 1.52083e-06
68 *280:11 *289:15 0.000220899
69 *283:9 *289:15 1.52618e-05
70 *285:9 *343:A4 8.56664e-06
71 *285:9 *289:57 2.60713e-06
72 *287:11 *289:15 7.77247e-05
73 *287:13 *289:33 0.000274446
74 *287:19 *289:47 7.92767e-05
75 *287:21 *289:51 0
76 *287:21 *289:57 0
77 *287:29 *343:A4 5.3396e-05
78 *287:29 *289:57 2.49071e-05
*RES
1 req[60] *289:15 43.8214 
2 *289:15 *289:19 48.25 
3 *289:19 *289:33 45.75 
4 *289:33 *289:47 32.3572 
5 *289:47 *289:51 39 
6 *289:51 *289:57 32.25 
7 *289:57 *343:A4 13.7143 
8 *289:57 *298:A4 16.1786 
*END

*D_NET *290 0.00642133
*CONN
*P req[61] I
*I *341:A1 I *D AND2_X1
*I *343:A3 I *D OR4_X1
*I *298:A3 I *D NOR4_X2
*CAP
1 req[61] 3.23771e-05
2 *341:A1 0
3 *343:A3 0
4 *298:A3 6.44107e-05
5 *290:39 0.000122249
6 *290:33 0.00019164
7 *290:29 0.000557752
8 *290:27 0.00042395
9 *290:25 0.000300151
10 *290:23 0.000474929
11 *290:13 0.000431181
12 *290:11 0.00028878
13 *298:A3 *298:A2 4.03773e-05
14 *298:A3 *343:A2 1.19839e-05
15 *298:A3 *292:17 6.85774e-07
16 *290:11 *294:11 1.86343e-05
17 *290:39 *291:25 1.28122e-06
18 grant[10] *290:13 0.000534789
19 *298:A4 *298:A3 1.21774e-06
20 *321:A3 *290:29 0.000107955
21 *328:A2 *290:25 7.19036e-06
22 *328:A2 *290:29 1.66988e-05
23 *332:A1 *290:25 1.32348e-05
24 *332:A2 *290:25 4.89299e-05
25 *341:A2 *290:33 2.75346e-06
26 *341:A2 *290:39 7.72792e-06
27 *343:A4 *298:A3 2.39679e-06
28 *343:A4 *290:39 7.72792e-06
29 *346:A *290:39 4.32144e-07
30 *351:A *290:33 2.83315e-05
31 *351:B *290:33 1.09661e-05
32 *351:B *290:39 1.50843e-05
33 *363:B1 *290:29 1.94663e-05
34 *363:B2 *290:29 5.74149e-05
35 *415:A2 *290:25 0.000135802
36 *416:B2 *290:25 1.18589e-06
37 *434:A *290:29 0
38 *9:10 *290:29 5.57891e-05
39 *36:14 *290:23 6.32202e-06
40 *41:10 *290:39 0
41 *51:10 *290:29 0
42 *51:10 *290:33 1.74579e-05
43 *115:16 *290:29 9.16327e-05
44 *164:12 *290:13 1.32323e-05
45 *164:12 *290:23 8.10333e-05
46 *170:10 *290:11 7.18184e-06
47 *173:14 *290:23 6.06584e-05
48 *179:18 *290:11 8.56664e-06
49 *209:10 *290:23 7.70442e-05
50 *220:10 *290:33 1.83053e-06
51 *244:13 *290:11 2.16072e-07
52 *246:13 *290:23 1.34016e-05
53 *248:9 *290:29 9.69862e-05
54 *250:19 *290:13 3.65322e-06
55 *250:19 *290:23 0.000223021
56 *253:13 *290:29 3.14023e-05
57 *270:13 *290:11 2.2287e-05
58 *270:13 *290:13 0.000230464
59 *273:9 *290:29 0.000917843
60 *274:11 *290:11 1.52083e-06
61 *274:13 *290:25 0.00020331
62 *277:49 *290:23 2.15711e-05
63 *278:21 *290:25 2.87248e-06
64 *282:5 *290:11 3.23723e-07
65 *282:17 *290:23 8.8002e-05
66 *282:21 *290:25 0.000145496
67 *286:15 *290:11 1.85196e-05
68 *287:21 *290:33 0
69 *287:29 *290:33 0
*RES
1 req[61] *290:11 14.8214 
2 *290:11 *290:13 50.25 
3 *290:13 *290:23 41.5 
4 *290:23 *290:25 49.25 
5 *290:25 *290:27 5 
6 *290:27 *290:29 72.1786 
7 *290:29 *290:33 19.75 
8 *290:33 *290:39 7.28572 
9 *290:39 *298:A3 12.7857 
10 *290:39 *343:A3 5 
11 *290:33 *341:A1 5 
*END

*D_NET *291 0.00508324
*CONN
*P req[62] I
*I *340:A2 I *D NOR2_X1
*I *343:A2 I *D OR4_X1
*I *298:A2 I *D NOR4_X2
*CAP
1 req[62] 3.81362e-05
2 *340:A2 0
3 *343:A2 7.57372e-06
4 *298:A2 3.6926e-05
5 *291:33 7.0743e-05
6 *291:25 4.06363e-05
7 *291:23 0.000283761
8 *291:13 0.000871744
9 *291:11 0.000640512
10 *298:A2 *343:A1 7.72792e-06
11 *298:A2 *292:17 0
12 *343:A2 *343:A1 9.76549e-06
13 *291:23 *292:9 6.6527e-05
14 *291:33 *292:37 6.69654e-05
15 grant[58] *291:13 0.000356614
16 grant[59] *291:13 0.00118862
17 grant[62] *291:11 2.05033e-06
18 *298:A3 *298:A2 4.03773e-05
19 *298:A3 *343:A2 1.19839e-05
20 *298:A4 *291:25 7.72537e-06
21 *298:A4 *291:33 1.25215e-05
22 *303:A1 *291:23 7.09627e-05
23 *343:A4 *291:25 4.32144e-07
24 *343:A4 *291:33 2.16072e-07
25 *346:B2 *298:A2 0
26 *394:C1 *291:23 1.09662e-05
27 *421:C1 *291:23 0
28 *6:6 *291:23 4.15369e-06
29 *7:10 *291:23 0
30 *7:12 *291:23 0
31 *41:10 *291:23 2.13573e-06
32 *41:10 *291:25 2.39679e-06
33 *257:5 *291:11 2.05033e-06
34 *259:5 *291:13 4.77381e-05
35 *259:9 *291:13 0.000827361
36 *259:9 *291:23 1.21774e-06
37 *259:15 *291:23 0.000197169
38 *280:11 *291:11 1.90192e-05
39 *280:17 *291:13 0
40 *280:17 *291:23 0
41 *281:13 *291:23 1.49183e-05
42 *285:9 *291:33 6.64238e-05
43 *287:29 *291:23 2.96955e-05
44 *287:29 *291:25 1.68643e-06
45 *289:15 *291:11 2.72417e-06
46 *289:57 *291:23 1.97744e-05
47 *290:39 *291:25 1.28122e-06
*RES
1 req[62] *291:11 14.1786 
2 *291:11 *291:13 126.25 
3 *291:13 *291:23 49.6072 
4 *291:23 *291:25 1.75 
5 *291:25 *291:33 14.8929 
6 *291:33 *298:A2 9.75 
7 *291:33 *343:A2 6.25 
8 *291:25 *340:A2 5 
*END

*D_NET *292 0.00511736
*CONN
*P req[63] I
*I *340:A1 I *D NOR2_X1
*I *343:A1 I *D OR4_X1
*I *342:A I *D INV_X1
*I *530:A I *D CLKBUF_X1
*I *298:A1 I *D NOR4_X2
*CAP
1 req[63] 0.000886719
2 *340:A1 0
3 *343:A1 1.39835e-05
4 *342:A 4.54097e-05
5 *530:A 0
6 *298:A1 1.23094e-05
7 *292:37 0.000103786
8 *292:17 5.37488e-05
9 *292:13 9.97148e-05
10 *292:11 1.38826e-05
11 *292:9 0.000257342
12 *292:7 0.000257342
13 *292:5 0.000886719
14 *298:A2 *343:A1 7.72792e-06
15 *298:A2 *292:17 0
16 *298:A3 *292:17 6.85774e-07
17 *298:A4 *292:13 1.56342e-05
18 *298:A4 *292:17 3.70266e-05
19 *303:A1 *292:9 0
20 *343:A2 *343:A1 9.76549e-06
21 *346:A *343:A1 2.39679e-06
22 *346:B2 *342:A 6.65423e-06
23 *346:B2 *343:A1 1.28122e-06
24 *394:C1 *292:9 0
25 *1:12 *342:A 9.18551e-06
26 *5:10 *292:9 0
27 *222:8 *298:A1 6.82967e-05
28 *259:17 *298:A1 6.82967e-05
29 *259:17 *342:A 0
30 *259:17 *292:37 0
31 *260:5 *292:5 0.000518569
32 *261:5 *292:5 0.000411405
33 *264:5 *292:5 9.83116e-05
34 *285:5 *292:5 0.000153212
35 *285:9 *342:A 3.02296e-05
36 *285:9 *292:9 0.000845315
37 *285:9 *292:37 1.26946e-05
38 *289:57 *292:9 5.62265e-05
39 *291:23 *292:9 6.6527e-05
40 *291:33 *292:37 6.69654e-05
*RES
1 req[63] *292:5 146.536 
2 *292:5 *292:7 5 
3 *292:7 *292:9 47.0714 
4 *292:9 *292:11 5 
5 *292:11 *292:13 1.75 
6 *292:13 *292:17 5.17857 
7 *292:17 *298:A1 18.6429 
8 *292:17 *530:A 5 
9 *292:13 *292:37 10.6786 
10 *292:37 *342:A 16.0714 
11 *292:37 *343:A1 11.75 
12 *292:11 *340:A1 5 
*END

*D_NET *293 0.00210891
*CONN
*P req[6] I
*I *334:A2 I *D OR4_X1
*I *370:A2 I *D NOR4_X1
*I *410:B I *D AOI211_X1
*I *369:A I *D INV_X1
*CAP
1 req[6] 0.000454721
2 *334:A2 0
3 *370:A2 1.12181e-05
4 *410:B 1.70449e-05
5 *369:A 0
6 *293:28 0.000116961
7 *293:20 0.000111697
8 *293:9 9.74242e-05
9 *293:5 0.000529147
10 *293:28 *331:A4 8.43215e-07
11 *293:28 *334:A1 2.18493e-05
12 grant[15] *293:5 0.000346405
13 *334:A3 *293:28 3.28042e-05
14 *334:A4 *293:28 1.61489e-05
15 *370:A3 *370:A2 2.75346e-06
16 *373:C1 *370:A2 1.89851e-06
17 *373:C2 *293:28 3.22061e-05
18 *410:C1 *410:B 2.53997e-05
19 *70:6 *370:A2 1.08381e-05
20 *70:6 *410:B 2.39679e-06
21 *173:28 *370:A2 2.35379e-05
22 *173:28 *410:B 7.72537e-06
23 *209:24 *293:28 7.19108e-06
24 *215:10 *293:9 2.80513e-05
25 *215:10 *293:20 7.65033e-06
26 *250:19 *410:B 6.84417e-06
27 *273:5 *293:5 0.000165031
28 *277:55 *293:28 4.45767e-06
29 *283:7 *293:5 2.3036e-05
30 *288:21 *293:28 3.62561e-06
*RES
1 req[6] *293:5 72.0357 
2 *293:5 *293:9 12.7143 
3 *293:9 *369:A 10 
4 *293:9 *293:20 7.28572 
5 *293:20 *293:28 21.3214 
6 *293:28 *410:B 7.5 
7 *293:28 *370:A2 7.25 
8 *293:20 *334:A2 5 
*END

*D_NET *294 0.00350644
*CONN
*P req[7] I
*I *437:A I *D AOI21_X1
*I *373:A I *D AOI221_X1
*I *370:A1 I *D NOR4_X1
*I *410:A I *D AOI211_X1
*I *334:A1 I *D OR4_X1
*CAP
1 req[7] 4.95931e-05
2 *437:A 0
3 *373:A 5.38235e-05
4 *370:A1 0
5 *410:A 2.02756e-05
6 *334:A1 8.13485e-05
7 *294:60 9.94619e-05
8 *294:27 0.000159504
9 *294:15 8.77118e-05
10 *294:13 0.000366014
11 *294:11 0.000340136
12 *334:A1 *331:A4 3.27548e-05
13 *294:13 *295:15 4.17841e-05
14 grant[10] *294:11 7.85867e-06
15 grant[29] *294:13 0.000591279
16 *334:A3 *334:A1 1.86174e-05
17 *373:B1 *373:A 1.19839e-05
18 *373:C2 *373:A 2.39679e-06
19 *375:B1 *410:A 0
20 *410:C1 *410:A 8.43215e-07
21 *411:C1 *410:A 8.43215e-07
22 *437:B1 *373:A 5.05349e-05
23 *437:B2 *373:A 1.68638e-05
24 *439:A *373:A 2.52965e-06
25 *69:12 *373:A 1.19839e-05
26 *170:10 *294:11 1.94646e-05
27 *173:28 *410:A 0
28 *173:28 *294:13 4.825e-05
29 *173:28 *294:15 3.43785e-05
30 *179:18 *294:11 0.000117498
31 *191:16 *373:A 0
32 *191:16 *294:60 0
33 *209:10 *334:A1 0.000144027
34 *209:10 *294:27 5.03994e-05
35 *209:24 *334:A1 4.9829e-06
36 *215:10 *373:A 0
37 *215:10 *294:27 4.92863e-06
38 *215:10 *294:60 0
39 *228:67 *334:A1 0
40 *238:17 *294:13 0.000607087
41 *238:17 *294:15 6.15513e-05
42 *238:17 *294:27 5.72712e-05
43 *247:17 *294:27 5.72712e-05
44 *250:19 *410:A 1.11373e-05
45 *250:27 *410:A 2.39679e-06
46 *270:13 *294:11 1.73151e-05
47 *277:55 *294:27 2.94435e-05
48 *288:21 *334:A1 9.71023e-05
49 *288:21 *294:27 5.33077e-05
50 *290:11 *294:11 1.86343e-05
51 *293:28 *334:A1 2.18493e-05
*RES
1 req[7] *294:11 18.3929 
2 *294:11 *294:13 64.75 
3 *294:13 *294:15 5.75 
4 *294:15 *294:27 25.3214 
5 *294:27 *334:A1 25.25 
6 *294:27 *410:A 12.4286 
7 *294:15 *370:A1 5 
8 *294:13 *294:60 9.32143 
9 *294:60 *373:A 17.3571 
10 *294:60 *437:A 10 
*END

*D_NET *295 0.00270386
*CONN
*P req[8] I
*I *331:A4 I *D NOR4_X1
*CAP
1 req[8] 0.00022034
2 *331:A4 0.000145369
3 *295:17 0.000442738
4 *295:15 0.000517709
5 *331:A4 *331:A3 2.39679e-06
6 *331:A4 *296:13 0
7 grant[1] *295:15 0.000120493
8 grant[29] *295:15 4.19349e-06
9 grant[61] *295:17 0.000627342
10 *331:A2 *331:A4 2.43639e-05
11 *334:A1 *331:A4 3.27548e-05
12 *204:18 *331:A4 0
13 *204:18 *295:17 3.51536e-06
14 *209:24 *331:A4 0
15 *214:10 *295:15 0
16 *238:15 *295:15 1.66988e-05
17 *238:17 *295:15 7.19036e-06
18 *242:13 *331:A4 8.52419e-06
19 *242:23 *331:A4 1.32348e-05
20 *263:13 *331:A4 2.75346e-06
21 *263:13 *295:17 0.00028609
22 *263:31 *331:A4 0.000185525
23 *293:28 *331:A4 8.43215e-07
24 *294:13 *295:15 4.17841e-05
*RES
1 req[8] *295:15 35.1786 
2 *295:15 *295:17 59.75 
3 *295:17 *331:A4 28.3572 
*END

*D_NET *296 0.00770505
*CONN
*P req[9] I
*I *440:B2 I *D AOI221_X1
*I *331:A3 I *D NOR4_X1
*I *368:B2 I *D AOI21_X1
*CAP
1 req[9] 0.000538686
2 *440:B2 0
3 *331:A3 2.53875e-05
4 *368:B2 2.30925e-05
5 *296:15 5.30731e-05
6 *296:13 5.84612e-05
7 *296:9 0.000844847
8 *296:7 0.000790978
9 *296:5 0.000538686
10 *296:9 *297:16 0.00176276
11 grant[0] *296:5 0.000233421
12 *331:A1 *296:13 4.79358e-06
13 *331:A1 *296:15 2.39679e-06
14 *331:A2 *331:A3 2.39679e-06
15 *331:A2 *296:9 5.57182e-06
16 *331:A2 *296:13 5.16499e-06
17 *331:A4 *331:A3 2.39679e-06
18 *331:A4 *296:13 0
19 *339:A3 *296:9 9.26807e-06
20 *368:B1 *368:B2 4.5563e-05
21 *368:B1 *296:13 2.39679e-06
22 *368:B1 *296:15 7.19036e-06
23 *374:A *331:A3 5.48953e-05
24 *440:C2 *296:13 0
25 *67:8 *296:13 3.57002e-05
26 *204:14 *296:9 1.56484e-06
27 *204:18 *296:13 2.90423e-05
28 *219:8 *331:A3 2.90163e-06
29 *228:67 *296:9 8.60555e-05
30 *234:19 *296:9 9.15642e-05
31 *234:21 *296:9 2.18035e-05
32 *242:23 *331:A3 2.24822e-06
33 *261:9 *296:9 0.00197915
34 *263:31 *331:A3 7.49642e-07
35 *263:31 *368:B2 9.50933e-07
36 *263:31 *296:13 1.10884e-05
37 *263:31 *296:15 9.50933e-07
38 *263:45 *331:A3 8.43215e-07
39 *263:45 *368:B2 1.85502e-05
40 *281:5 *296:5 0.000410465
*RES
1 req[9] *296:5 84.5358 
2 *296:5 *296:7 5 
3 *296:7 *296:9 149.536 
4 *296:9 *296:13 12.75 
5 *296:13 *296:15 0.75 
6 *296:15 *368:B2 9.25 
7 *296:15 *331:A3 18.7143 
8 *296:13 *440:B2 5 
*END

*D_NET *297 0.00531637
*CONN
*P valid O
*I *339:ZN O *D NAND4_X1
*CAP
1 valid 0.000616053
2 *339:ZN 3.97038e-05
3 *297:18 0.000616053
4 *297:16 0.000506787
5 *297:14 0.00054649
6 grant[62] valid 0
7 index[4] valid 0.00020832
8 *339:A1 *297:14 2.90448e-05
9 *339:A2 *297:14 8.64288e-07
10 *475:A3 *297:16 1.43538e-06
11 *495:A2 *297:16 1.36901e-05
12 *508:A1 *297:16 1.41798e-05
13 *156:10 *297:16 1.388e-05
14 *169:14 *297:14 2.13496e-05
15 *204:14 *297:14 5.54348e-05
16 *227:20 *297:16 0.00016439
17 *227:73 *297:16 0.000100797
18 *228:55 *297:16 6.36399e-05
19 *228:61 *297:16 6.76033e-05
20 *228:65 *297:16 3.472e-05
21 *228:67 *297:16 4.18393e-05
22 *239:5 valid 0.000238488
23 *254:13 *297:14 1.48981e-05
24 *265:35 *297:16 0.000143952
25 *276:13 valid 0
26 *296:9 *297:16 0.00176276
*RES
1 *339:ZN *297:14 26.7143 
2 *297:14 *297:16 94.5715 
3 *297:16 *297:18 5 
4 *297:18 valid 84.0358 
*END
